MA-Pb-I  Phonons/2015_MAPbI3/MAPbI3-Cubi
1.0
       17.7132244110         0.0000000000         0.0000000000
       -0.1426931695        17.7112591497         0.0000000000
        0.1968164558        -0.1964737486        12.7543833321
    C    N    H   Pb    I
   14   14   84   16   48
Direct
     0.223324001         0.026550001         0.229402006
     0.723324001         0.526549995         0.229402006
     0.723324001         0.526549995         0.729402006
     0.973324001         0.776549995         0.729402006
     0.223324001         0.026550001         0.729402006
     0.473324001         0.276549995         0.229402006
     0.973324001         0.276549995         0.229402006
     0.973324001         0.276549995         0.729402006
     0.223324001         0.526549995         0.229402006
     0.223324001         0.526549995         0.729402006
     0.473324001         0.776549995         0.229402006
     0.473324001         0.776549995         0.729402006
     0.723324001         0.026550001         0.229402006
     0.723324001         0.026550001         0.729402006
     0.277384013         0.972624004         0.273373991
     0.777383983         0.472624004         0.273373991
     0.777383983         0.472624004         0.773374021
     0.027384000         0.722624004         0.773374021
     0.277384013         0.972624004         0.773374021
     0.527383983         0.222624004         0.273373991
     0.027384000         0.222624004         0.273373991
     0.027384000         0.222624004         0.773374021
     0.277384013         0.472624004         0.273373991
     0.277384013         0.472624004         0.773374021
     0.527383983         0.722624004         0.273373991
     0.527383983         0.722624004         0.773374021
     0.777383983         0.972624004         0.273373991
     0.777383983         0.972624004         0.773374021
     0.226924002         0.022871001         0.143388003
     0.726924002         0.522871017         0.143388003
     0.726924002         0.522871017         0.643387973
     0.976924002         0.772871017         0.643387973
     0.226924002         0.022871001         0.643387973
     0.476924002         0.272870988         0.143388003
     0.976924002         0.272870988         0.143388003
     0.976924002         0.272870988         0.643387973
     0.226924002         0.522871017         0.143388003
     0.226924002         0.522871017         0.643387973
     0.476924002         0.772871017         0.143388003
     0.476924002         0.772871017         0.643387973
     0.726924002         0.022871001         0.143388003
     0.726924002         0.022871001         0.643387973
     0.238260999         0.083936997         0.256341994
     0.738260984         0.583936989         0.256341994
     0.738260984         0.583936989         0.756341994
     0.988260984         0.833936989         0.756341994
     0.238260999         0.083936997         0.756341994
     0.488261014         0.333936989         0.256341994
     0.988260984         0.333936989         0.256341994
     0.988260984         0.333936989         0.756341994
     0.238260999         0.583936989         0.256341994
     0.238260999         0.583936989         0.756341994
     0.488261014         0.833936989         0.256341994
     0.488261014         0.833936989         0.756341994
     0.738260984         0.083936997         0.256341994
     0.738260984         0.083936997         0.756341994
     0.165993005         0.011533000         0.256464005
     0.665992975         0.511533022         0.256464005
     0.665992975         0.511533022         0.756464005
     0.915992975         0.761533022         0.756464005
     0.165993005         0.011533000         0.756464005
     0.415993005         0.261532992         0.256464005
     0.915992975         0.261532992         0.256464005
     0.915992975         0.261532992         0.756464005
     0.165993005         0.511533022         0.256464005
     0.165993005         0.511533022         0.756464005
     0.415993005         0.761533022         0.256464005
     0.415993005         0.761533022         0.756464005
     0.665992975         0.011533000         0.256464005
     0.665992975         0.011533000         0.756464005
     0.332980007         0.984834015         0.249917999
     0.832979977         0.484833986         0.249917999
     0.832979977         0.484833986         0.749917984
     0.082979999         0.734834015         0.749917984
     0.332980007         0.984834015         0.749917984
     0.582979977         0.234834000         0.249917999
     0.082979999         0.234834000         0.249917999
     0.082979999         0.234834000         0.749917984
     0.332980007         0.484833986         0.249917999
     0.332980007         0.484833986         0.749917984
     0.582979977         0.734834015         0.249917999
     0.582979977         0.734834015         0.749917984
     0.832979977         0.984834015         0.249917999
     0.832979977         0.984834015         0.749917984
     0.265237987         0.916985989         0.250016987
     0.765237987         0.416985989         0.250016987
     0.765237987         0.416985989         0.750016987
     0.015238000         0.666985989         0.750016987
     0.265237987         0.916985989         0.750016987
     0.515237987         0.166986004         0.250016987
     0.015238000         0.166986004         0.250016987
     0.015238000         0.166986004         0.750016987
     0.265237987         0.416985989         0.250016987
     0.265237987         0.416985989         0.750016987
     0.515237987         0.666985989         0.250016987
     0.515237987         0.666985989         0.750016987
     0.765237987         0.916985989         0.250016987
     0.765237987         0.916985989         0.750016987
     0.277112007         0.972963989         0.355053008
     0.777112007         0.472963989         0.355053008
     0.777112007         0.472963989         0.855053008
     0.027112000         0.722963989         0.855053008
     0.277112007         0.972963989         0.855053008
     0.527112007         0.222964004         0.355053008
     0.027112000         0.222964004         0.355053008
     0.027112000         0.222964004         0.855053008
     0.277112007         0.472963989         0.355053008
     0.277112007         0.472963989         0.855053008
     0.527112007         0.722963989         0.355053008
     0.527112007         0.722963989         0.855053008
     0.777112007         0.972963989         0.355053008
     0.777112007         0.972963989         0.855053008
     0.236242995         0.763764024         0.489199996
     0.736243010         0.263763994         0.489199996
     0.736243010         0.263763994         0.989199996
     0.986243010         0.513764024         0.489199996
     0.986243010         0.513764024         0.989199996
     0.236242995         0.763764024         0.989199996
     0.486243010         0.013764000         0.489199996
     0.486243010         0.013764000         0.989199996
     0.986243010         0.013764000         0.489199996
     0.986243010         0.013764000         0.989199996
     0.236242995         0.263763994         0.489199996
     0.236242995         0.263763994         0.989199996
     0.486243010         0.513764024         0.489199996
     0.486243010         0.513764024         0.989199996
     0.736243010         0.763764024         0.489199996
     0.736243010         0.763764024         0.989199996
     0.227362007         0.772665977         0.237434998
     0.727361977         0.272666007         0.237434998
     0.727361977         0.272666007         0.737434983
     0.977361977         0.522665977         0.237434998
     0.977361977         0.522665977         0.737434983
     0.227362007         0.772665977         0.737434983
     0.477362007         0.022666000         0.237434998
     0.477362007         0.022666000         0.737434983
     0.977361977         0.022666000         0.237434998
     0.977361977         0.022666000         0.737434983
     0.227362007         0.272666007         0.237434998
     0.227362007         0.272666007         0.737434983
     0.477362007         0.522665977         0.237434998
     0.477362007         0.522665977         0.737434983
     0.727361977         0.772665977         0.237434998
     0.727361977         0.772665977         0.737434983
     0.349808991         0.900231004         0.011373000
     0.849808991         0.400231004         0.011373000
     0.849808991         0.400231004         0.511372983
     0.099808998         0.650231004         0.011373000
     0.099808998         0.650231004         0.511372983
     0.349808991         0.900231004         0.511372983
     0.599808991         0.150231004         0.011373000
     0.599808991         0.150231004         0.511372983
     0.099808998         0.150231004         0.011373000
     0.099808998         0.150231004         0.511372983
     0.349808991         0.400231004         0.011373000
     0.349808991         0.400231004         0.511372983
     0.599808991         0.650231004         0.011373000
     0.599808991         0.650231004         0.511372983
     0.849808991         0.900231004         0.011373000
     0.849808991         0.900231004         0.511372983
     0.108111002         0.891892016         0.461602002
     0.608111024         0.391891986         0.461602002
     0.608111024         0.391891986         0.961601973
     0.858111024         0.641892016         0.461602002
     0.858111024         0.641892016         0.961601973
     0.108111002         0.891892016         0.961601973
     0.358110994         0.141892001         0.461602002
     0.358110994         0.141892001         0.961601973
     0.858111024         0.141892001         0.461602002
     0.858111024         0.141892001         0.961601973
     0.108111002         0.391891986         0.461602002
     0.108111002         0.391891986         0.961601973
     0.358110994         0.641892016         0.461602002
     0.358110994         0.641892016         0.961601973
     0.608111024         0.891892016         0.461602002
     0.608111024         0.891892016         0.961601973
