MA-Pb-I  Phonons/2015_MAPbI3/MAPbI3-Cubi
   1.00000000000000     
    17.4822735334851167    0.0345586626266937   -0.0394313741525757
    -0.1062790090636946   17.4823886284281187    0.0402354069942377
     0.1653782287749374   -0.1647134341431565   12.8346033385324301
   C    N    H    Pb   I    Cs
    14    14    84    16    48     2
Direct
  0.2287736243787957  0.0257440740486697  0.2251394220515504
  0.7242487751340098  0.5212025335679746  0.2250986874115299
  0.7287736243787957  0.5257440680486763  0.7251394220515504
  0.9679169744507466  0.7821365816418138  0.7352086839779711
  0.2242487751340097  0.0212025395679680  0.7250986874115370
  0.4679169744507465  0.2821365816418137  0.2352086839779711
  0.9674482316160837  0.2789792797720065  0.2333572081896771
  0.9711113148407120  0.2826887896796916  0.7333901058866830
  0.2204258446893543  0.5295378917787296  0.2265484765239710
  0.2229840864140064  0.5269783366382218  0.7260803822933669
  0.4711113148407119  0.7826887896796915  0.2333901058866830
  0.4674482316160839  0.7789792797720065  0.7333572081896770
  0.7229840864140064  0.0269783426382152  0.2260803822933670
  0.7204258446893543  0.0295378977787301  0.7265484765239709
  0.2819627577074446  0.9713161158306265  0.2735814752607005
  0.7786413003370619  0.4679804735954333  0.2735477723365902
  0.7819627277074420  0.4713161158306335  0.7735815052606889
  0.0239851240955048  0.7259691512571809  0.7725840180491870
  0.2786413303370643  0.9679804735954333  0.7735478023365928
  0.5239851070955069  0.2259691512571808  0.2725839880491844
  0.0262336480408531  0.2240037118854910  0.2664192923814150
  0.0259335187841221  0.2237625966080133  0.7664584564553588
  0.2723671106863756  0.4775314559204019  0.2821289380759407
  0.2758211509628653  0.4740837596954114  0.7782582984328763
  0.5259335017841172  0.7237625966080135  0.2664584264553634
  0.5262336310408553  0.7240037118854910  0.7664193223814174
  0.7758211209628630  0.9740837596954114  0.2782582684328737
  0.7723670806863802  0.9775314559204018  0.7821289680759430
  0.2373801459712211  0.0243500707936903  0.1401808800438119
  0.7256860580933311  0.5126355529969413  0.1401341037813759
  0.7373801459712280  0.5243500867936915  0.6401808500438166
  0.9686069226505190  0.7814760962712859  0.6495117358297269
  0.2256860580933310  0.0126355369969400  0.6401340737813805
  0.4686069226505189  0.2814760672712800  0.1495117658297224
  0.9658405514584700  0.2797058643418502  0.1477714659914289
  0.9704515605298331  0.2843520156987103  0.6478050059251355
  0.2284414404358012  0.5215869867463918  0.1421014461210467
  0.2295978740571755  0.5203805559371830  0.6412268618690202
  0.4704515605298401  0.7843520446987090  0.1478050359251307
  0.4658405514584771  0.7797058933418490  0.6477714359914336
  0.7295978740571684  0.0203805399371746  0.1412268918690155
  0.7284414404358083  0.0215869707463904  0.6421014161210514
  0.2409457350603324  0.0834518139021199  0.2558164007559228
  0.7410990691198164  0.5801797819597583  0.2451098268852122
  0.7409457200603348  0.5834518059021191  0.7558164007559227
  0.9835185091671463  0.8393762066954535  0.7644615816918110
  0.2410990841198141  0.0801797899597590  0.7451098268852052
  0.4835185391671415  0.3393762066954537  0.2644615816918181
  0.9819436395372138  0.3362640470670213  0.2635075914538639
  0.9890310423164920  0.3386047941317720  0.7648467545599106
  0.2341336453321460  0.5888740233557880  0.2489853383785278
  0.2371899699697266  0.5859235168758953  0.7498944949203117
  0.4890310723164943  0.8386047941317721  0.2648467545599107
  0.4819436695372235  0.8362640470670213  0.7635075914538638
  0.7371899549697289  0.0859235248758959  0.2498944949203116
  0.7341336303321484  0.0888740313557886  0.7489853383785207
  0.1697819164664516  0.0089018676433272  0.2450873975132680
  0.6665211094835954  0.5090358675653154  0.2557118081640075
  0.6697818864664562  0.5089018896433291  0.7450873975132750
  0.9106414771134631  0.7666163667134898  0.7644146093004330
  0.1665211394835906  0.0090358455653136  0.7557118081640074
  0.4106415071134586  0.2666163367134874  0.2644146093004330
  0.9114716897236662  0.2611634889354147  0.2647253536696307
  0.9137713368406014  0.2683033517488592  0.7634459317472035
  0.1610646602660556  0.5158416591236649  0.2488780171473164
  0.1640191921051436  0.5128207154189262  0.7498612960625635
  0.4137713668405969  0.7683033817488617  0.2634459317472108
  0.4114717197236615  0.7611635189354099  0.7647253536696308
  0.6640191621051482  0.0128206934189243  0.2498612960625635
  0.6610646302660530  0.0158416371236631  0.7488780171473164
  0.3391422750060216  0.9846971014141513  0.2564358394918684
  0.8351535027970383  0.4786644344878183  0.2496250160807216
  0.8391422450060262  0.4846970724141597  0.7564358244918707
  0.0796462962928933  0.7387518293514840  0.7471613182127852
  0.3351535327970407  0.9786644634878171  0.7496250010807238
  0.5796462742928985  0.2387518143514864  0.2471613332127828
  0.0807527149411109  0.2390039332229335  0.2392168288594780
  0.0812775917971575  0.2352460271820156  0.7392172336084374
  0.3298393615152301  0.4890359564745954  0.2644355402955950
  0.3330254865526061  0.4856689567744933  0.7593206024953965
  0.5812775697971557  0.7352460421820131  0.2392172486084282
  0.5807526929411020  0.7390039482229240  0.7392168138594802
  0.8330254565526034  0.9856689857744921  0.2593206174953941
  0.8298393315152418  0.9890359854745943  0.7644355252955974
  0.2712716564448264  0.9148159312307174  0.2496188887849279
  0.7652508621221678  0.4108107507159649  0.2563646232293940
  0.7712716564448265  0.4148159312307172  0.7496188887849277
  0.0111331101984035  0.6703328910848757  0.7471308238741574
  0.2652508621221607  0.9108107507159648  0.7563646232293940
  0.5111330971984059  0.1703329060848876  0.2471308238741574
  0.0146621709426735  0.1687037783828129  0.2390946000506669
  0.0108494122491405  0.1692899279436818  0.7391803784622665
  0.2608700364870757  0.4200778663140933  0.2643189775903356
  0.2642023441191231  0.4168942202881497  0.7592812068705086
  0.5108493992491357  0.6692899129436771  0.2391803784622663
  0.5146621579426760  0.6687037633828080  0.7390946000506669
  0.7642023441191231  0.9168942202881496  0.2592812068705014
  0.7608700364870686  0.9200778663140934  0.7643189775903355
  0.2763354735740019  0.9718380369031235  0.3543156929973197
  0.7780949077220012  0.4735858121506121  0.3542844981800141
  0.7763354735740021  0.4718380369031236  0.8543156929973199
  0.0266213821524945  0.7233114650102962  0.8538490012430807
  0.2780949077220012  0.9735858121506120  0.8542844981800071
  0.5266213891524844  0.2233114800102938  0.3538490012430807
  0.0305141132652111  0.2198762872949553  0.3475322039972044
  0.0300024371602678  0.2194312947213981  0.8475707584671393
  0.2657415601991098  0.4840718295950759  0.3623453947551289
  0.2708953224683002  0.4789862345833407  0.8588361471293864
  0.5300024441602649  0.7194312797214005  0.3475707584671464
  0.5305141202652081  0.7198762722949578  0.8475322039972045
  0.7708953224683002  0.9789862345833337  0.3588361471293863
  0.7657415601991097  0.9840718295950759  0.8623453947551287
  0.2316622343076840  0.7616145203095623  0.4858664264081158
  0.7372395460016490  0.2631564369542176  0.4904004519842944
  0.7316622493076820  0.2616144903095812  0.9858664264081087
  0.9883149552692562  0.5182883459250791  0.4858604024817718
  0.9867789719100446  0.5127169937192927  0.9904204486390390
  0.2372395310016441  0.7631564669542129  0.9904004519842802
  0.4867789719100377  0.0127169697192978  0.4904204486390463
  0.4883149552692563  0.0182883219250843  0.9858604024817575
  0.9871870704911997  0.0133896988049948  0.4891973574677879
  0.9857850378919013  0.0133913981330225  0.9891930373853999
  0.2365308105583832  0.2641302965788065  0.4892012277873543
  0.2365481370385083  0.2627221983942173  0.9891860468846239
  0.4857850378919085  0.5133914221330175  0.4891930373853998
  0.4871870704911995  0.5133897228049896  0.9891973574677809
  0.7365481520385131  0.7627222283942128  0.4891860468846380
  0.7365308255583881  0.7641303265788019  0.9892012277873542
  0.2269104317826243  0.7743514072839979  0.2358736487629985
  0.7244853420537486  0.2695543930389959  0.2356082767077240
  0.7269104017826219  0.2743514372840075  0.7358736337630010
  0.9755855626506807  0.5231219750114804  0.2358825496970172
  0.9803862276792735  0.5254742172391674  0.7356145778110035
  0.2244853720537512  0.7695543630390007  0.7356082617077263
  0.4803862576792691  0.0254742402391730  0.2356145928110011
  0.4755855926506761  0.0231219980114787  0.7358825346970195
  0.9785721117452914  0.0200054935914123  0.2372371787182400
  0.9731235249125885  0.0218406098474033  0.7372807985835923
  0.2281392532869633  0.2767698720969631  0.2372771646363785
  0.2298887516002167  0.2713488807788153  0.7372404642702228
  0.4731235549125838  0.5218405868474048  0.2372808135835901
  0.4785721417452937  0.5200054705914139  0.7372371637182423
  0.7298887216002072  0.7713488507788198  0.2372404792702204
  0.7281392232869749  0.7767698420969676  0.7372771496363739
  0.3768082319646672  0.8755577677609133  0.9912429868409189
  0.8743643058556748  0.3731549901291990  0.9913009250185256
  0.8768082319646743  0.3755577677609133  0.4912429698409211
  0.0869506447540944  0.6629950705577794  0.0136657373666922
  0.0727776701486607  0.6771626806828326  0.4934325757219139
  0.3743643058556749  0.8731549901291917  0.4913009080185348
  0.5727776631486637  0.1771626806828327  0.9934325927219047
  0.5869506377540975  0.1629950705577795  0.5136657203666873
  0.0839336250409044  0.1655833846765632  0.0112110315352924
  0.0843110346744177  0.1660067621035013  0.5112215621786531
  0.3834867168444140  0.3664360256890958  0.9737194152452175
  0.3845539698549678  0.3653633314888179  0.5054150846839253
  0.5843110276744207  0.6660067621035085  0.0112215791786581
  0.5839336180409145  0.6655833846765561  0.5112110145352944
  0.8845539698549678  0.8653633314888178  0.0054151016839231
  0.8834867168444140  0.8664360256890956  0.4737193982452269
  0.1358997265413899  0.9166215200790799  0.4692114847359936
  0.6311194810457281  0.4113490042919963  0.4735235043789185
  0.6358997485413918  0.4166214900790775  0.9692114557359948
  0.8332749015044238  0.6139913834767116  0.4692700024780906
  0.8385595324658374  0.6187981414632423  0.9735005584488762
  0.1311194590457262  0.9113490342919988  0.9735234753789196
  0.3385595024658349  0.1187981264632447  0.4735005874488750
  0.3332748715044212  0.1139913684767138  0.9692699734780916
  0.8364733945154181  0.1148760328781262  0.4730329380721228
  0.8332965117825114  0.1138947180204053  0.9776968442256843
  0.1360397188820392  0.4166372135570881  0.4777020020977589
  0.1350374083826564  0.4134392586472679  0.9730810713571061
  0.3332964817825091  0.6138947330204032  0.4776968732256831
  0.3364733645154157  0.6148760478781239  0.9730329090721238
  0.6350374303826584  0.9134392886472704  0.4730811003571051
  0.6360397408820481  0.9166372435570834  0.9777019730977602
  0.9877383147192854  0.7624686398207863  0.2440047585745935
  0.4877382847192900  0.2624686398207861  0.7440047435745889
 
  0.00000000E+00  0.00000000E+00  0.00000000E+00
  0.00000000E+00  0.00000000E+00  0.00000000E+00
  0.00000000E+00  0.00000000E+00  0.00000000E+00
  0.00000000E+00  0.00000000E+00  0.00000000E+00
  0.00000000E+00  0.00000000E+00  0.00000000E+00
  0.00000000E+00  0.00000000E+00  0.00000000E+00
  0.00000000E+00  0.00000000E+00  0.00000000E+00
  0.00000000E+00  0.00000000E+00  0.00000000E+00
  0.00000000E+00  0.00000000E+00  0.00000000E+00
  0.00000000E+00  0.00000000E+00  0.00000000E+00
  0.00000000E+00  0.00000000E+00  0.00000000E+00
  0.00000000E+00  0.00000000E+00  0.00000000E+00
  0.00000000E+00  0.00000000E+00  0.00000000E+00
  0.00000000E+00  0.00000000E+00  0.00000000E+00
  0.00000000E+00  0.00000000E+00  0.00000000E+00
  0.00000000E+00  0.00000000E+00  0.00000000E+00
  0.00000000E+00  0.00000000E+00  0.00000000E+00
  0.00000000E+00  0.00000000E+00  0.00000000E+00
  0.00000000E+00  0.00000000E+00  0.00000000E+00
  0.00000000E+00  0.00000000E+00  0.00000000E+00
  0.00000000E+00  0.00000000E+00  0.00000000E+00
  0.00000000E+00  0.00000000E+00  0.00000000E+00
  0.00000000E+00  0.00000000E+00  0.00000000E+00
  0.00000000E+00  0.00000000E+00  0.00000000E+00
  0.00000000E+00  0.00000000E+00  0.00000000E+00
  0.00000000E+00  0.00000000E+00  0.00000000E+00
  0.00000000E+00  0.00000000E+00  0.00000000E+00
  0.00000000E+00  0.00000000E+00  0.00000000E+00
  0.00000000E+00  0.00000000E+00  0.00000000E+00
  0.00000000E+00  0.00000000E+00  0.00000000E+00
  0.00000000E+00  0.00000000E+00  0.00000000E+00
  0.00000000E+00  0.00000000E+00  0.00000000E+00
  0.00000000E+00  0.00000000E+00  0.00000000E+00
  0.00000000E+00  0.00000000E+00  0.00000000E+00
  0.00000000E+00  0.00000000E+00  0.00000000E+00
  0.00000000E+00  0.00000000E+00  0.00000000E+00
  0.00000000E+00  0.00000000E+00  0.00000000E+00
  0.00000000E+00  0.00000000E+00  0.00000000E+00
  0.00000000E+00  0.00000000E+00  0.00000000E+00
  0.00000000E+00  0.00000000E+00  0.00000000E+00
  0.00000000E+00  0.00000000E+00  0.00000000E+00
  0.00000000E+00  0.00000000E+00  0.00000000E+00
  0.00000000E+00  0.00000000E+00  0.00000000E+00
  0.00000000E+00  0.00000000E+00  0.00000000E+00
  0.00000000E+00  0.00000000E+00  0.00000000E+00
  0.00000000E+00  0.00000000E+00  0.00000000E+00
  0.00000000E+00  0.00000000E+00  0.00000000E+00
  0.00000000E+00  0.00000000E+00  0.00000000E+00
  0.00000000E+00  0.00000000E+00  0.00000000E+00
  0.00000000E+00  0.00000000E+00  0.00000000E+00
  0.00000000E+00  0.00000000E+00  0.00000000E+00
  0.00000000E+00  0.00000000E+00  0.00000000E+00
  0.00000000E+00  0.00000000E+00  0.00000000E+00
  0.00000000E+00  0.00000000E+00  0.00000000E+00
  0.00000000E+00  0.00000000E+00  0.00000000E+00
  0.00000000E+00  0.00000000E+00  0.00000000E+00
  0.00000000E+00  0.00000000E+00  0.00000000E+00
  0.00000000E+00  0.00000000E+00  0.00000000E+00
  0.00000000E+00  0.00000000E+00  0.00000000E+00
  0.00000000E+00  0.00000000E+00  0.00000000E+00
  0.00000000E+00  0.00000000E+00  0.00000000E+00
  0.00000000E+00  0.00000000E+00  0.00000000E+00
  0.00000000E+00  0.00000000E+00  0.00000000E+00
  0.00000000E+00  0.00000000E+00  0.00000000E+00
  0.00000000E+00  0.00000000E+00  0.00000000E+00
  0.00000000E+00  0.00000000E+00  0.00000000E+00
  0.00000000E+00  0.00000000E+00  0.00000000E+00
  0.00000000E+00  0.00000000E+00  0.00000000E+00
  0.00000000E+00  0.00000000E+00  0.00000000E+00
  0.00000000E+00  0.00000000E+00  0.00000000E+00
  0.00000000E+00  0.00000000E+00  0.00000000E+00
  0.00000000E+00  0.00000000E+00  0.00000000E+00
  0.00000000E+00  0.00000000E+00  0.00000000E+00
  0.00000000E+00  0.00000000E+00  0.00000000E+00
  0.00000000E+00  0.00000000E+00  0.00000000E+00
  0.00000000E+00  0.00000000E+00  0.00000000E+00
  0.00000000E+00  0.00000000E+00  0.00000000E+00
  0.00000000E+00  0.00000000E+00  0.00000000E+00
  0.00000000E+00  0.00000000E+00  0.00000000E+00
  0.00000000E+00  0.00000000E+00  0.00000000E+00
  0.00000000E+00  0.00000000E+00  0.00000000E+00
  0.00000000E+00  0.00000000E+00  0.00000000E+00
  0.00000000E+00  0.00000000E+00  0.00000000E+00
  0.00000000E+00  0.00000000E+00  0.00000000E+00
  0.00000000E+00  0.00000000E+00  0.00000000E+00
  0.00000000E+00  0.00000000E+00  0.00000000E+00
  0.00000000E+00  0.00000000E+00  0.00000000E+00
  0.00000000E+00  0.00000000E+00  0.00000000E+00
  0.00000000E+00  0.00000000E+00  0.00000000E+00
  0.00000000E+00  0.00000000E+00  0.00000000E+00
  0.00000000E+00  0.00000000E+00  0.00000000E+00
  0.00000000E+00  0.00000000E+00  0.00000000E+00
  0.00000000E+00  0.00000000E+00  0.00000000E+00
  0.00000000E+00  0.00000000E+00  0.00000000E+00
  0.00000000E+00  0.00000000E+00  0.00000000E+00
  0.00000000E+00  0.00000000E+00  0.00000000E+00
  0.00000000E+00  0.00000000E+00  0.00000000E+00
  0.00000000E+00  0.00000000E+00  0.00000000E+00
  0.00000000E+00  0.00000000E+00  0.00000000E+00
  0.00000000E+00  0.00000000E+00  0.00000000E+00
  0.00000000E+00  0.00000000E+00  0.00000000E+00
  0.00000000E+00  0.00000000E+00  0.00000000E+00
  0.00000000E+00  0.00000000E+00  0.00000000E+00
  0.00000000E+00  0.00000000E+00  0.00000000E+00
  0.00000000E+00  0.00000000E+00  0.00000000E+00
  0.00000000E+00  0.00000000E+00  0.00000000E+00
  0.00000000E+00  0.00000000E+00  0.00000000E+00
  0.00000000E+00  0.00000000E+00  0.00000000E+00
  0.00000000E+00  0.00000000E+00  0.00000000E+00
  0.00000000E+00  0.00000000E+00  0.00000000E+00
  0.00000000E+00  0.00000000E+00  0.00000000E+00
  0.00000000E+00  0.00000000E+00  0.00000000E+00
  0.00000000E+00  0.00000000E+00  0.00000000E+00
  0.00000000E+00  0.00000000E+00  0.00000000E+00
  0.00000000E+00  0.00000000E+00  0.00000000E+00
  0.00000000E+00  0.00000000E+00  0.00000000E+00
  0.00000000E+00  0.00000000E+00  0.00000000E+00
  0.00000000E+00  0.00000000E+00  0.00000000E+00
  0.00000000E+00  0.00000000E+00  0.00000000E+00
  0.00000000E+00  0.00000000E+00  0.00000000E+00
  0.00000000E+00  0.00000000E+00  0.00000000E+00
  0.00000000E+00  0.00000000E+00  0.00000000E+00
  0.00000000E+00  0.00000000E+00  0.00000000E+00
  0.00000000E+00  0.00000000E+00  0.00000000E+00
  0.00000000E+00  0.00000000E+00  0.00000000E+00
  0.00000000E+00  0.00000000E+00  0.00000000E+00
  0.00000000E+00  0.00000000E+00  0.00000000E+00
  0.00000000E+00  0.00000000E+00  0.00000000E+00
  0.00000000E+00  0.00000000E+00  0.00000000E+00
  0.00000000E+00  0.00000000E+00  0.00000000E+00
  0.00000000E+00  0.00000000E+00  0.00000000E+00
  0.00000000E+00  0.00000000E+00  0.00000000E+00
  0.00000000E+00  0.00000000E+00  0.00000000E+00
  0.00000000E+00  0.00000000E+00  0.00000000E+00
  0.00000000E+00  0.00000000E+00  0.00000000E+00
  0.00000000E+00  0.00000000E+00  0.00000000E+00
  0.00000000E+00  0.00000000E+00  0.00000000E+00
  0.00000000E+00  0.00000000E+00  0.00000000E+00
  0.00000000E+00  0.00000000E+00  0.00000000E+00
  0.00000000E+00  0.00000000E+00  0.00000000E+00
  0.00000000E+00  0.00000000E+00  0.00000000E+00
  0.00000000E+00  0.00000000E+00  0.00000000E+00
  0.00000000E+00  0.00000000E+00  0.00000000E+00
  0.00000000E+00  0.00000000E+00  0.00000000E+00
  0.00000000E+00  0.00000000E+00  0.00000000E+00
  0.00000000E+00  0.00000000E+00  0.00000000E+00
  0.00000000E+00  0.00000000E+00  0.00000000E+00
  0.00000000E+00  0.00000000E+00  0.00000000E+00
  0.00000000E+00  0.00000000E+00  0.00000000E+00
  0.00000000E+00  0.00000000E+00  0.00000000E+00
  0.00000000E+00  0.00000000E+00  0.00000000E+00
  0.00000000E+00  0.00000000E+00  0.00000000E+00
  0.00000000E+00  0.00000000E+00  0.00000000E+00
  0.00000000E+00  0.00000000E+00  0.00000000E+00
  0.00000000E+00  0.00000000E+00  0.00000000E+00
  0.00000000E+00  0.00000000E+00  0.00000000E+00
  0.00000000E+00  0.00000000E+00  0.00000000E+00
  0.00000000E+00  0.00000000E+00  0.00000000E+00
  0.00000000E+00  0.00000000E+00  0.00000000E+00
  0.00000000E+00  0.00000000E+00  0.00000000E+00
  0.00000000E+00  0.00000000E+00  0.00000000E+00
  0.00000000E+00  0.00000000E+00  0.00000000E+00
  0.00000000E+00  0.00000000E+00  0.00000000E+00
  0.00000000E+00  0.00000000E+00  0.00000000E+00
  0.00000000E+00  0.00000000E+00  0.00000000E+00
  0.00000000E+00  0.00000000E+00  0.00000000E+00
  0.00000000E+00  0.00000000E+00  0.00000000E+00
  0.00000000E+00  0.00000000E+00  0.00000000E+00
  0.00000000E+00  0.00000000E+00  0.00000000E+00
  0.00000000E+00  0.00000000E+00  0.00000000E+00
  0.00000000E+00  0.00000000E+00  0.00000000E+00
  0.00000000E+00  0.00000000E+00  0.00000000E+00
  0.00000000E+00  0.00000000E+00  0.00000000E+00
  0.00000000E+00  0.00000000E+00  0.00000000E+00
  0.00000000E+00  0.00000000E+00  0.00000000E+00
  0.00000000E+00  0.00000000E+00  0.00000000E+00
  0.00000000E+00  0.00000000E+00  0.00000000E+00
  0.00000000E+00  0.00000000E+00  0.00000000E+00
