MA-Pb-I  Phonons/2015_MAPbI3/MAPbI3-Cubi
   1.00000000000000     
    17.3435642457853625    0.0123550252666175   -0.0644317024225970
    -0.0588851986231219   17.3719926078671243    0.0744120491299717
     0.0877578911030242   -0.0803089603844621   12.7344438359591852
   C    N    H    Pb   I    Cs
     8     8    48    16    49     8
Direct
  0.2203018934523837  0.0556464418316343  0.2443836323198945
  0.7588451935022330  0.5385746402917597  0.2312807003577303
  0.7027552902757837  0.5431169565781377  0.7591104393302814
  0.2074150763547362  0.0181595012081901  0.7487895928611159
  0.9559242518177671  0.2474910521497805  0.7341135364522180
  0.2179220762307692  0.5097330017533142  0.7358474741130429
  0.4839764519339227  0.7927416228545511  0.1982592545991945
  0.7258635475264261  0.0412968021915074  0.2367353190703973
  0.2572347961959809  0.9790719167261592  0.2442838023821561
  0.7931593996649108  0.4740763994151711  0.2901772012315521
  0.7738864005746376  0.4969363302578421  0.7477149072045599
  0.2884898993769082  0.9919204903717317  0.7485661986819254
  0.0191606867513087  0.1971322424109897  0.7696482268893671
  0.2763008395507126  0.4590050572021648  0.7835823238278569
  0.5138240612018288  0.7540109157069212  0.2930431735582342
  0.7625689044707715  0.9685731418134805  0.2698180205805036
  0.2373275105511305  0.0863890399398194  0.1724658111165745
  0.7652710179998850  0.5277347686190054  0.1465944826223975
  0.6638574219015676  0.5299620658643251  0.6933472033517537
  0.1781650838271620 -0.0057610246466289  0.6793729616295747
  0.9505890496695519  0.2422094537111698  0.6483321644742966
  0.2211270146650397  0.5045220237253835  0.6498774682999392
  0.5074405769499313  0.7638607702092195  0.1280786072890203
  0.7451935134352530  0.0555480905635911  0.1566613436312241
  0.2394576108896431  0.0875995618953269  0.3143136105360171
  0.7891039838382032  0.5919792273539667  0.2530291533911246
  0.7184367675767374  0.6045886853273280  0.7582431820467720
  0.2069251697953823  0.0815204874284411  0.7461138434173153
  0.9692453507156049  0.3074759143139977  0.7553330615239172
  0.2297606747056406  0.5694403028010069  0.7599827346849714
  0.5016890316331212  0.8535913331212093  0.1994560393239705
  0.7432021020489993  0.0871204060701986  0.2916632225843361
  0.1572789988540525  0.0479938850420198  0.2464459022427324
  0.6974033559586912  0.5428801383296225  0.2518306025245588
  0.6748993581640090  0.5285003647111117  0.8342601334926852
  0.1791155246558942 -0.0024747666380473  0.8209813683746982
  0.9020119064682696  0.2295309894939888  0.7728969246759911
  0.1604400706939441  0.4920762218095755  0.7638979568023997
  0.4206182000135780  0.7886244454244155  0.1984327146283250
  0.6628483963214999  0.0339049709150684  0.2381417019461735
  0.3175840734810375  0.9836442765170383  0.2430487064981353
  0.8523296685815528  0.4702301544930093  0.2734191567360690
  0.8014439431423470  0.5099532816002413  0.6766337747506458
  0.3171462867563923  0.0123906314940567  0.6816141706524188
  0.0718679178432681  0.2123463091629862  0.7353986954384051
  0.3330822604820882  0.4730741382872792  0.7611118953883688
  0.5742363181177996  0.7555566700082409  0.2951784464434394
  0.8229114486314258  0.9742236723510672  0.2702882875889275
  0.2389858887414693  0.9474195317785495  0.1787230790431744
  0.7676892051627880  0.4207304687209659  0.2735440572052137
  0.7626936374031891  0.4376424914696483  0.7497097614333553
  0.2909287303854044  0.9317674509192032  0.7496634158559125
  0.0085276171728795  0.1391709491792604  0.7511398930397756
  0.2659215865860298  0.4011462636804188  0.7643805571950412
  0.4971163428881745  0.6958703599141621  0.2932824878776747
  0.7480982645537101  0.9227132158846346  0.2206115458755023
  0.2401789358421194  0.9482468259542474  0.3112051061999683
  0.7894754400188205  0.4836044117379589  0.3709679315361573
  0.8123167389573540  0.5107613704862555  0.8080917419535073
  0.3175732771646648  0.0131244514005545  0.8146209837816721
  0.0274998711230642  0.1992128440557922  0.8513836095118954
  0.2740074357774306  0.4629251115252370  0.8652408532279362
  0.4924351746389657  0.7791401858035053  0.3620012178547979
  0.7438889286694634  0.9530202030790896  0.3453883119022390
  0.2444100398394408  0.7608110248763628  0.4925006183814694
  0.7453215723986346  0.2554169729295898  0.4985322997939328
  0.7420282115057197  0.2675084839945194  0.0048981135055889
  0.9963776233865600  0.5133424540166228  0.5005143611359992
  0.9931500029673480  0.5131273590611463  0.9931757008392903
  0.2411252951601383  0.7664619776719577  0.9878306988546464
  0.4946880192802059  0.0144007074918980  0.4938259341504558
  0.4968326760314861  0.0134895774845115  0.9916194283805342
  0.9880990429946465  0.0074015805569146  0.4966197300921724
  0.9824794603499117  0.0092520254536391  0.0015899099627982
  0.2377192256469771  0.2571533164744331  0.4945071489708725
  0.2390155391084826  0.2590437983946495 -0.0017298119053229
  0.4857126524269726  0.5070354133059941  0.4580548425076008
  0.4855708893239079  0.5154160109723182  0.9915847886722883
  0.7389318309472453  0.7551010908315042  0.4984385977851950
  0.7351292453483042  0.7592408685559217  0.9922420121859131
  0.2518664383992890  0.7597766598458967  0.2406402334175035
  0.7742307516880474  0.2650318263187056  0.2538785893313901
  0.7296646257634443  0.2876534832676247  0.7559236946310156
  0.9896147351002362  0.5198338436144267  0.2453513201871932
  0.9904961490059269  0.5165632649314214  0.7450876356802786
  0.2222936120707777  0.7913860967581027  0.7398223176476233
  0.4630770486111794  0.0184316753288217  0.2433388309487711
  0.5110607634476141  0.0326474778000859  0.7428205339083912
  0.9621948091291085  0.0194151507104205  0.2485828043774379
  0.9860086064181082 -0.0088478545848630  0.7474953055568727
  0.2425723840542807  0.2748498154250765  0.2448421545235357
  0.2193397698609008  0.2627258624849761  0.7447338568942966
  0.4384627358994599  0.5679279652508827  0.2354730159296616
  0.4782958635701602  0.4956472216290416  0.7456668220083044
  0.7207087435144809  0.7607717258241555  0.2471300943882745
  0.7535874440075757  0.7801417615953226  0.7456615696218508
  0.3934528980794336  0.8657015922768733 -0.0466466348617526
  0.9002523289849030  0.3593245718511679  0.0008440605878745
  0.8920232949160937  0.3647312616088955  0.4968058350384592
  0.0868742207883100  0.6714134665667169  0.0042552930340920
  0.0856676131785949  0.6718096124762784  0.4870180733058749
  0.4047903247691264  0.8523842150221193  0.5000795797809940
  0.5862030851542509  0.1719934347835047  0.0079348147745981
  0.5838912957477537  0.1713668731627485  0.4769118042235777
  0.0832549916645432  0.1639953692319170  0.0258457515456307
  0.0776199298142642  0.1656281866784681  0.4945259858410198
  0.3938451679640837  0.3542826534106921 -0.0087293321558364
  0.3928173090788609  0.3504829889818135  0.5008275842852248
  0.5800268935238265  0.6685531535701852  0.9642396879890548
  0.5866318997304699  0.6544148341196974  0.5140994414047448
  0.8943874569181168  0.8519002303134616  0.0112964221610227
  0.8970573588169489  0.8474212728429885  0.4834826714598200
  0.1456111180357751  0.9153923748109675  0.4606803071446232
  0.6409534773453531  0.4193742186202568  0.0173097000438229
  0.8309924636024308  0.5972949900370890  0.5119935505524686
  0.8424336388507404  0.6120075110599090  0.9629258346035482
  0.1417359573238507  0.9174357184295188  0.0298757030390398
  0.3342490031820224  0.1002796541862330  0.5155464069887654
  0.3383428079289438  0.1065918322294482  0.9758256980052384
  0.8301268817271636  0.0965475380673503  0.5156002382638243
  0.8389305440647640  0.1149919137956459 -0.0375687210053077
  0.1431849597624515  0.4114461484596889  0.4694578817407745
  0.1497718444595555  0.4185601838268900  0.0067537435368158
  0.3335341196514331  0.6051822363523162  0.5175760136530398
  0.3289832681138142  0.6088468025925409  0.9611249671054540
  0.6485583665235581  0.9149896387926775  0.4903176811207643
  0.6525329690681289  0.9208709882572690  0.0125047298001277
  0.5922868762032577  0.4107339169708147  0.2985018907228169
  0.6377591099332286  0.4009291773992208  0.5456428425273979
  0.0256886625083194  0.7944929403495755  0.2448856123270405
  0.5042589465809851  0.2652683646476108  0.7446330695171146
  0.4469475750014358  0.7176767796774619  0.7362278081265999
  0.0093966060818752  0.2890213952617066  0.2553233606551782
  0.9789467694333290  0.7487167684513282  0.7521309734456637
  0.7361946878528448 -0.0013563110520626  0.7515619315442787
  0.4604332157859913  0.2401034495027203  0.2413093439316504
  0.2203241820037924  0.5393248483507918  0.2425384255926106
 
  0.00000000E+00  0.00000000E+00  0.00000000E+00
  0.00000000E+00  0.00000000E+00  0.00000000E+00
  0.00000000E+00  0.00000000E+00  0.00000000E+00
  0.00000000E+00  0.00000000E+00  0.00000000E+00
  0.00000000E+00  0.00000000E+00  0.00000000E+00
  0.00000000E+00  0.00000000E+00  0.00000000E+00
  0.00000000E+00  0.00000000E+00  0.00000000E+00
  0.00000000E+00  0.00000000E+00  0.00000000E+00
  0.00000000E+00  0.00000000E+00  0.00000000E+00
  0.00000000E+00  0.00000000E+00  0.00000000E+00
  0.00000000E+00  0.00000000E+00  0.00000000E+00
  0.00000000E+00  0.00000000E+00  0.00000000E+00
  0.00000000E+00  0.00000000E+00  0.00000000E+00
  0.00000000E+00  0.00000000E+00  0.00000000E+00
  0.00000000E+00  0.00000000E+00  0.00000000E+00
  0.00000000E+00  0.00000000E+00  0.00000000E+00
  0.00000000E+00  0.00000000E+00  0.00000000E+00
  0.00000000E+00  0.00000000E+00  0.00000000E+00
  0.00000000E+00  0.00000000E+00  0.00000000E+00
  0.00000000E+00  0.00000000E+00  0.00000000E+00
  0.00000000E+00  0.00000000E+00  0.00000000E+00
  0.00000000E+00  0.00000000E+00  0.00000000E+00
  0.00000000E+00  0.00000000E+00  0.00000000E+00
  0.00000000E+00  0.00000000E+00  0.00000000E+00
  0.00000000E+00  0.00000000E+00  0.00000000E+00
  0.00000000E+00  0.00000000E+00  0.00000000E+00
  0.00000000E+00  0.00000000E+00  0.00000000E+00
  0.00000000E+00  0.00000000E+00  0.00000000E+00
  0.00000000E+00  0.00000000E+00  0.00000000E+00
  0.00000000E+00  0.00000000E+00  0.00000000E+00
  0.00000000E+00  0.00000000E+00  0.00000000E+00
  0.00000000E+00  0.00000000E+00  0.00000000E+00
  0.00000000E+00  0.00000000E+00  0.00000000E+00
  0.00000000E+00  0.00000000E+00  0.00000000E+00
  0.00000000E+00  0.00000000E+00  0.00000000E+00
  0.00000000E+00  0.00000000E+00  0.00000000E+00
  0.00000000E+00  0.00000000E+00  0.00000000E+00
  0.00000000E+00  0.00000000E+00  0.00000000E+00
  0.00000000E+00  0.00000000E+00  0.00000000E+00
  0.00000000E+00  0.00000000E+00  0.00000000E+00
  0.00000000E+00  0.00000000E+00  0.00000000E+00
  0.00000000E+00  0.00000000E+00  0.00000000E+00
  0.00000000E+00  0.00000000E+00  0.00000000E+00
  0.00000000E+00  0.00000000E+00  0.00000000E+00
  0.00000000E+00  0.00000000E+00  0.00000000E+00
  0.00000000E+00  0.00000000E+00  0.00000000E+00
  0.00000000E+00  0.00000000E+00  0.00000000E+00
  0.00000000E+00  0.00000000E+00  0.00000000E+00
  0.00000000E+00  0.00000000E+00  0.00000000E+00
  0.00000000E+00  0.00000000E+00  0.00000000E+00
  0.00000000E+00  0.00000000E+00  0.00000000E+00
  0.00000000E+00  0.00000000E+00  0.00000000E+00
  0.00000000E+00  0.00000000E+00  0.00000000E+00
  0.00000000E+00  0.00000000E+00  0.00000000E+00
  0.00000000E+00  0.00000000E+00  0.00000000E+00
  0.00000000E+00  0.00000000E+00  0.00000000E+00
  0.00000000E+00  0.00000000E+00  0.00000000E+00
  0.00000000E+00  0.00000000E+00  0.00000000E+00
  0.00000000E+00  0.00000000E+00  0.00000000E+00
  0.00000000E+00  0.00000000E+00  0.00000000E+00
  0.00000000E+00  0.00000000E+00  0.00000000E+00
  0.00000000E+00  0.00000000E+00  0.00000000E+00
  0.00000000E+00  0.00000000E+00  0.00000000E+00
  0.00000000E+00  0.00000000E+00  0.00000000E+00
  0.00000000E+00  0.00000000E+00  0.00000000E+00
  0.00000000E+00  0.00000000E+00  0.00000000E+00
  0.00000000E+00  0.00000000E+00  0.00000000E+00
  0.00000000E+00  0.00000000E+00  0.00000000E+00
  0.00000000E+00  0.00000000E+00  0.00000000E+00
  0.00000000E+00  0.00000000E+00  0.00000000E+00
  0.00000000E+00  0.00000000E+00  0.00000000E+00
  0.00000000E+00  0.00000000E+00  0.00000000E+00
  0.00000000E+00  0.00000000E+00  0.00000000E+00
  0.00000000E+00  0.00000000E+00  0.00000000E+00
  0.00000000E+00  0.00000000E+00  0.00000000E+00
  0.00000000E+00  0.00000000E+00  0.00000000E+00
  0.00000000E+00  0.00000000E+00  0.00000000E+00
  0.00000000E+00  0.00000000E+00  0.00000000E+00
  0.00000000E+00  0.00000000E+00  0.00000000E+00
  0.00000000E+00  0.00000000E+00  0.00000000E+00
  0.00000000E+00  0.00000000E+00  0.00000000E+00
  0.00000000E+00  0.00000000E+00  0.00000000E+00
  0.00000000E+00  0.00000000E+00  0.00000000E+00
  0.00000000E+00  0.00000000E+00  0.00000000E+00
  0.00000000E+00  0.00000000E+00  0.00000000E+00
  0.00000000E+00  0.00000000E+00  0.00000000E+00
  0.00000000E+00  0.00000000E+00  0.00000000E+00
  0.00000000E+00  0.00000000E+00  0.00000000E+00
  0.00000000E+00  0.00000000E+00  0.00000000E+00
  0.00000000E+00  0.00000000E+00  0.00000000E+00
  0.00000000E+00  0.00000000E+00  0.00000000E+00
  0.00000000E+00  0.00000000E+00  0.00000000E+00
  0.00000000E+00  0.00000000E+00  0.00000000E+00
  0.00000000E+00  0.00000000E+00  0.00000000E+00
  0.00000000E+00  0.00000000E+00  0.00000000E+00
  0.00000000E+00  0.00000000E+00  0.00000000E+00
  0.00000000E+00  0.00000000E+00  0.00000000E+00
  0.00000000E+00  0.00000000E+00  0.00000000E+00
  0.00000000E+00  0.00000000E+00  0.00000000E+00
  0.00000000E+00  0.00000000E+00  0.00000000E+00
  0.00000000E+00  0.00000000E+00  0.00000000E+00
  0.00000000E+00  0.00000000E+00  0.00000000E+00
  0.00000000E+00  0.00000000E+00  0.00000000E+00
  0.00000000E+00  0.00000000E+00  0.00000000E+00
  0.00000000E+00  0.00000000E+00  0.00000000E+00
  0.00000000E+00  0.00000000E+00  0.00000000E+00
  0.00000000E+00  0.00000000E+00  0.00000000E+00
  0.00000000E+00  0.00000000E+00  0.00000000E+00
  0.00000000E+00  0.00000000E+00  0.00000000E+00
  0.00000000E+00  0.00000000E+00  0.00000000E+00
  0.00000000E+00  0.00000000E+00  0.00000000E+00
  0.00000000E+00  0.00000000E+00  0.00000000E+00
  0.00000000E+00  0.00000000E+00  0.00000000E+00
  0.00000000E+00  0.00000000E+00  0.00000000E+00
  0.00000000E+00  0.00000000E+00  0.00000000E+00
  0.00000000E+00  0.00000000E+00  0.00000000E+00
  0.00000000E+00  0.00000000E+00  0.00000000E+00
  0.00000000E+00  0.00000000E+00  0.00000000E+00
  0.00000000E+00  0.00000000E+00  0.00000000E+00
  0.00000000E+00  0.00000000E+00  0.00000000E+00
  0.00000000E+00  0.00000000E+00  0.00000000E+00
  0.00000000E+00  0.00000000E+00  0.00000000E+00
  0.00000000E+00  0.00000000E+00  0.00000000E+00
  0.00000000E+00  0.00000000E+00  0.00000000E+00
  0.00000000E+00  0.00000000E+00  0.00000000E+00
  0.00000000E+00  0.00000000E+00  0.00000000E+00
  0.00000000E+00  0.00000000E+00  0.00000000E+00
  0.00000000E+00  0.00000000E+00  0.00000000E+00
  0.00000000E+00  0.00000000E+00  0.00000000E+00
  0.00000000E+00  0.00000000E+00  0.00000000E+00
  0.00000000E+00  0.00000000E+00  0.00000000E+00
  0.00000000E+00  0.00000000E+00  0.00000000E+00
  0.00000000E+00  0.00000000E+00  0.00000000E+00
  0.00000000E+00  0.00000000E+00  0.00000000E+00
  0.00000000E+00  0.00000000E+00  0.00000000E+00
  0.00000000E+00  0.00000000E+00  0.00000000E+00
  0.00000000E+00  0.00000000E+00  0.00000000E+00
