MA-Pb-I  Phonons/2015_MAPbI3/MAPbI3-Cubi
   1.00000000000000     
    17.6356035500105044   -0.0379363127600782    0.0455283198910035
    -0.1097288301264634   17.1457799218999938   -0.1247904218094179
     0.1702789523077191   -0.2251910081627225   12.7191579541014121
   C    N    H    Pb   I    Cs
    12    12    72    16    48     4
Direct
  0.1998262890875182  0.0385382400292187  0.2405240753106384
  0.7225516351249226  0.5182465362689683  0.2408089299534524
  0.7013107589425047  0.5373170219362962  0.7401742945465131
  0.9821461994100389  0.7823097702112847  0.7044084759690037
  0.2209224082699848  0.0171376872904077  0.7414747363669036
  0.4834400325523234  0.2846033273837349  0.2087012345116932
  0.9818773896383703  0.2815155624368799  0.7053417544959117
  0.1997178724036104  0.5373900016135025  0.2433566392318056
  0.2225123793488137  0.5176220918181045  0.7392961261446587
  0.4816750904202394  0.7804759620041750  0.2056135275814768
  0.7223819329394416  0.0170759527151887  0.2386933925106121
  0.6992324915510721  0.0391836132299517  0.7437265810020932
  0.2733394255615593  0.9976158550608432  0.2425936698506845
  0.7745831820636866  0.4633540712302988  0.2902461577000750
  0.7752773089513951  0.4971764987235261  0.7414214430794175
  0.0159594059770569  0.7410940213542148  0.7929942723269079
  0.2742531289853858  0.9636286489980890  0.7910312531297308
  0.5224417116264988  0.2369538190571561  0.2864623598695957
  0.0185207152061224  0.2382611500382694  0.7898158521010643
  0.2740337638913672  0.4978827762632179  0.2371487369789378
  0.2742509834097291  0.4629349339498461  0.7896985093978941
  0.5178034908388369  0.7381929399009550  0.2914050542626327
  0.7739338692731863  0.9626235687965092  0.2898787442813102
  0.7726583158423850  0.9980490731689429  0.7361408472556548
  0.1696462096178735  0.0202209534723679  0.1689398544515015
  0.7273268443523264  0.5112521145597029  0.1548132076333957
  0.6708459360729009  0.5185507488608536  0.6690165316438694
  0.0065906207046140  0.7590649642068001  0.6300369988867658
  0.2230563492598350  0.0073743191456757  0.6557289543853884
  0.5023920688188994  0.2661748611307786  0.1291843005143107
  0.0045525117625331  0.2605491064895986  0.6287819251650646
  0.1655718424041766  0.5178919857797837  0.1758972605167841
  0.2266448574799540  0.5092121114259314  0.6534323015653527
  0.5047707855023660  0.7586761179462655  0.1296931511484942
  0.7267259261887915  0.0082203634813638  0.1529114280305990
  0.6639216421730580  0.0201908007480824  0.6772115262144851
  0.2108869141059060  0.1017707549997340  0.2401202412036554
  0.7384882678605535  0.5781503117703437  0.2649085887053317
  0.7117342638132342  0.6006514637580835  0.7394460388386079
  0.9948801706898180  0.8450451896000430  0.7130048259018480
  0.2376678850069780  0.0776297032549493  0.7611747103787962
  0.4978074452291636  0.3464514746098786  0.2232946947538608
  0.9941734293724096  0.3441547090402466  0.7164523490262980
  0.2093986727750732  0.6007898589134939  0.2409658681862155
  0.2391897975266275  0.5776884585813207  0.7615099219804762
  0.4939270533656526  0.8432108192990029  0.2155792791503401
  0.7391114366962626  0.0772278550004586  0.2603840167093381
  0.7102128831321721  0.1023471451433977  0.7405546281895710
  0.1666114425556486  0.0235548116187303  0.3111715514398554
  0.6641357798578085  0.5054596272679035  0.2671287612559610
  0.6687113144202286  0.5220873482217741  0.8112649460719652
  0.9203540124957001  0.7730052000949144  0.7061858539322188
  0.1632933898306419  0.0054034846503797  0.7718098196291407
  0.4217958265215955  0.2760585926319763  0.2175924276770971
  0.9202372558082388  0.2714910844915792  0.7098735346984952
  0.1712421663077208  0.5223355005370536  0.3177520478000133
  0.1641141877357981  0.5058911729376234  0.7666156971346396
  0.4200134478953785  0.7705006359631739  0.2096517048396720
  0.6639030282290435  0.0055351445967631  0.2658233375882801
  0.6713069261120665  0.0250849759453615  0.8188715507959188
  0.3063443947654534  0.0124189264612085  0.1770345171336629
  0.8313246922480175  0.4737274297139464  0.2682143153301624
  0.8077184594925129  0.5122539536522126  0.6754576755659798
  0.0747510688085100  0.7491187878379151  0.7941791398581728
  0.3304524208380002  0.9734662629736803  0.7661388734806351
  0.5813933953711725  0.2441158027501444  0.2809265651938091
  0.0773730444115159  0.2464360076871799  0.7880818396154510
  0.3030938241593972  0.5134736790202510  0.1683875692608794
  0.3309791049726414  0.4724258135003865  0.7669039676773508
  0.5766413909176791  0.7464995744265650  0.2902397171937707
  0.8307159217891780  0.9721508378999602  0.2674201518067036
  0.8013278703280164  0.0130183080678989  0.6667822880894505
  0.2663421129214640  0.9369885344690374  0.2425649635218932
  0.7611125440741020  0.4051554695632760  0.2713228839020090
  0.7687536036930567  0.4365072106133638  0.7415451322685485
  0.0061828950184193  0.6808914972713112  0.7869111723715676
  0.2603281669143769  0.9050574960904711  0.7752345170735921
  0.5111251404640598  0.1773021800092351  0.2750201320625649
  0.0086571005494847  0.1781190290839518  0.7818223054531970
  0.2681069502445368  0.4371619442612769  0.2375201570351209
  0.2601003477890629  0.4046422129887475  0.7723846172309194
  0.5081550049039549  0.6779664239252412  0.2842382207882252
  0.7598725501390433  0.9042660820009587  0.2727981528510455
  0.7656613689279794  0.9374477374009089  0.7367669116164492
  0.3029020592286287  0.0150707091571718  0.3101343417855063
  0.7720689306045116  0.4693582732669483  0.3717800041661903
  0.8051034627910951  0.5149954169966762  0.8085261525302059
  0.9933869101801562  0.7610552235826020  0.8651147846491583
  0.2738146558810755  0.9718664179117198  0.8723493150953203
  0.5055664969754829  0.2521201757151132  0.3631097399535861
  0.9981229752297622  0.2563942302992430  0.8638701237372075
  0.3069298435902894  0.5156733141143164  0.3012969919643922
  0.2722612585217590  0.4702093745547700  0.8711091558756863
  0.4968660697136187  0.7569586766508820  0.3649176519742312
  0.7716394438250092  0.9701510420928656  0.3712445680011243
  0.8065174188294577  0.0152151829890457  0.7995573873504114
  0.2404158013723361  0.7535452792947908  0.4894205988663742
  0.7410444387662167  0.2527877790963018  0.4942836330178864
  0.7409504105422471  0.2536150071138579  0.9882079649955244
  0.9923470812080595  0.5092823170979557  0.4924466853561782
  0.9862836327829214  0.5046838726176475  0.9920478751986650
  0.2405461400640192  0.7525865643813177  0.9945411041377525
  0.4859570957517363  0.0044758596862806  0.4919908608259647
  0.4915845735928031  0.0088239138995334  0.9917675578478367
  0.9923123161391914  0.0089091373395789  0.4915798732441985
  0.9854421432808067  0.0051118450862546  0.9919935084136284
  0.2411470596170489  0.2537392900476050  0.4894153277038100
  0.2408049219528650  0.2523313608010014  0.9952199787460145
  0.4855784425658314  0.5037912523517463  0.4915993834901400
  0.4923167757076712  0.5085226838322257  0.9915580211306292
  0.7406856483475082  0.7521845559252753  0.4953768368699372
  0.7394639879767979  0.7535149148237110  0.9895958258962025
  0.2489869184538591  0.7838631091670720  0.2400375934979309
  0.7248645179793698  0.2605852254067074  0.2398129112611187
  0.7480391531538402  0.2842338136948825  0.7393850536405466
  0.9689687290180800  0.5125053337923617  0.2405755295700871
  0.9897061128990927  0.5312272197899617  0.7420683333068325
  0.2193686294783888  0.7620529899461346  0.7410282010326625
  0.4886944890413716  0.0283106423847386  0.2416685347951457
  0.4685463608425806  0.0140583118836730  0.7404930925607545
  0.9680180002243688  0.0136391391990927  0.2400109470303846
  0.9888988884088334  0.0292724368042414  0.7411086379878853
  0.2489447670944216  0.2844830153435964  0.2403586748448134
  0.2215885443185570  0.2607814367622012  0.7411796891986029
  0.4894514231949145  0.5298248358981041  0.2410659932005998
  0.4689515934593800  0.5108452090637527  0.7397227929159342
  0.7202177647075558  0.7609690122398689  0.2413739440121319
  0.7491989578267848  0.7842417544512514  0.7405109743507126
  0.3891351321765200  0.8542603833475795  0.9708878458277255
  0.9035783248972820  0.3385795293560037  0.9923955966010212
  0.8891392596474006  0.3550405827993117  0.4723633096582205
  0.0879178945471963  0.6560906959479667  0.0185530488218504
  0.0858483768136935  0.6632380084037166  0.4659225564178229
  0.4033740510067148  0.8386983913164414  0.4940211450458705
  0.5848747358035880  0.1638808650981360  0.9718472118322765
  0.5885077834940304  0.1556885050322165  0.5177536563036753
  0.0879432476682354  0.1560843717164389  0.0184866051472952
  0.0858863694129255  0.1630452356584442  0.4676033965463020
  0.3888091951893031  0.3545783068532629  0.9719891449542928
  0.4043515419883121  0.3372637304709940  0.4924256698930591
  0.5850756847193566  0.6629139950553551  0.9654205089721444
  0.5882848392396127  0.6552158094157861  0.5190782450965443
  0.9014610277753476  0.8399644175474066  0.9956051657625409
  0.8888678192914057  0.8546478984862915  0.4708751594156197
  0.1379685078760176  0.9057291047415532  0.4793711718272675
  0.6367482521533319  0.4039054277582110  0.4929465269000914
  0.6380702396422038  0.4057035476740509  0.9810216845640269
  0.8302034392675921  0.5937073234379682  0.5050955420185730
  0.8294171016744372  0.5937615660283200  0.9795015512718024
  0.1356896541327117  0.9038121430504376  0.9953826732566640
  0.3284974113498080  0.0924549857394581  0.4811091818274917
  0.3293469389896160  0.0930820871836957  0.0059678182176555
  0.8301600210973419  0.0939706307320449  0.5024412349445058
  0.8284945313341083  0.0931104106127947  0.9756085801998537
  0.1371825833534714  0.4047510474277232  0.4828669150109803
  0.1374044106854910  0.4046394575011476  0.9958098088700922
  0.3291333655750677  0.5932439126844855  0.4768019689130583
  0.3301591358801375  0.5939761501319509  0.0024010346029755
  0.6375783226364362  0.9049995618348277  0.4975072490623162
  0.6369494667948743  0.9051949934126000  0.9812681122478040
  0.0264808143201947  0.7949868538793510  0.2420626083425717
  0.5252348374205482  0.2921784614618019  0.7430296596537147
  0.5266317262474303  0.7950098605773306  0.7418644066383777
  0.0263152640192317  0.2943845317467151  0.2427892610205902
 
  0.00000000E+00  0.00000000E+00  0.00000000E+00
  0.00000000E+00  0.00000000E+00  0.00000000E+00
  0.00000000E+00  0.00000000E+00  0.00000000E+00
  0.00000000E+00  0.00000000E+00  0.00000000E+00
  0.00000000E+00  0.00000000E+00  0.00000000E+00
  0.00000000E+00  0.00000000E+00  0.00000000E+00
  0.00000000E+00  0.00000000E+00  0.00000000E+00
  0.00000000E+00  0.00000000E+00  0.00000000E+00
  0.00000000E+00  0.00000000E+00  0.00000000E+00
  0.00000000E+00  0.00000000E+00  0.00000000E+00
  0.00000000E+00  0.00000000E+00  0.00000000E+00
  0.00000000E+00  0.00000000E+00  0.00000000E+00
  0.00000000E+00  0.00000000E+00  0.00000000E+00
  0.00000000E+00  0.00000000E+00  0.00000000E+00
  0.00000000E+00  0.00000000E+00  0.00000000E+00
  0.00000000E+00  0.00000000E+00  0.00000000E+00
  0.00000000E+00  0.00000000E+00  0.00000000E+00
  0.00000000E+00  0.00000000E+00  0.00000000E+00
  0.00000000E+00  0.00000000E+00  0.00000000E+00
  0.00000000E+00  0.00000000E+00  0.00000000E+00
  0.00000000E+00  0.00000000E+00  0.00000000E+00
  0.00000000E+00  0.00000000E+00  0.00000000E+00
  0.00000000E+00  0.00000000E+00  0.00000000E+00
  0.00000000E+00  0.00000000E+00  0.00000000E+00
  0.00000000E+00  0.00000000E+00  0.00000000E+00
  0.00000000E+00  0.00000000E+00  0.00000000E+00
  0.00000000E+00  0.00000000E+00  0.00000000E+00
  0.00000000E+00  0.00000000E+00  0.00000000E+00
  0.00000000E+00  0.00000000E+00  0.00000000E+00
  0.00000000E+00  0.00000000E+00  0.00000000E+00
  0.00000000E+00  0.00000000E+00  0.00000000E+00
  0.00000000E+00  0.00000000E+00  0.00000000E+00
  0.00000000E+00  0.00000000E+00  0.00000000E+00
  0.00000000E+00  0.00000000E+00  0.00000000E+00
  0.00000000E+00  0.00000000E+00  0.00000000E+00
  0.00000000E+00  0.00000000E+00  0.00000000E+00
  0.00000000E+00  0.00000000E+00  0.00000000E+00
  0.00000000E+00  0.00000000E+00  0.00000000E+00
  0.00000000E+00  0.00000000E+00  0.00000000E+00
  0.00000000E+00  0.00000000E+00  0.00000000E+00
  0.00000000E+00  0.00000000E+00  0.00000000E+00
  0.00000000E+00  0.00000000E+00  0.00000000E+00
  0.00000000E+00  0.00000000E+00  0.00000000E+00
  0.00000000E+00  0.00000000E+00  0.00000000E+00
  0.00000000E+00  0.00000000E+00  0.00000000E+00
  0.00000000E+00  0.00000000E+00  0.00000000E+00
  0.00000000E+00  0.00000000E+00  0.00000000E+00
  0.00000000E+00  0.00000000E+00  0.00000000E+00
  0.00000000E+00  0.00000000E+00  0.00000000E+00
  0.00000000E+00  0.00000000E+00  0.00000000E+00
  0.00000000E+00  0.00000000E+00  0.00000000E+00
  0.00000000E+00  0.00000000E+00  0.00000000E+00
  0.00000000E+00  0.00000000E+00  0.00000000E+00
  0.00000000E+00  0.00000000E+00  0.00000000E+00
  0.00000000E+00  0.00000000E+00  0.00000000E+00
  0.00000000E+00  0.00000000E+00  0.00000000E+00
  0.00000000E+00  0.00000000E+00  0.00000000E+00
  0.00000000E+00  0.00000000E+00  0.00000000E+00
  0.00000000E+00  0.00000000E+00  0.00000000E+00
  0.00000000E+00  0.00000000E+00  0.00000000E+00
  0.00000000E+00  0.00000000E+00  0.00000000E+00
  0.00000000E+00  0.00000000E+00  0.00000000E+00
  0.00000000E+00  0.00000000E+00  0.00000000E+00
  0.00000000E+00  0.00000000E+00  0.00000000E+00
  0.00000000E+00  0.00000000E+00  0.00000000E+00
  0.00000000E+00  0.00000000E+00  0.00000000E+00
  0.00000000E+00  0.00000000E+00  0.00000000E+00
  0.00000000E+00  0.00000000E+00  0.00000000E+00
  0.00000000E+00  0.00000000E+00  0.00000000E+00
  0.00000000E+00  0.00000000E+00  0.00000000E+00
  0.00000000E+00  0.00000000E+00  0.00000000E+00
  0.00000000E+00  0.00000000E+00  0.00000000E+00
  0.00000000E+00  0.00000000E+00  0.00000000E+00
  0.00000000E+00  0.00000000E+00  0.00000000E+00
  0.00000000E+00  0.00000000E+00  0.00000000E+00
  0.00000000E+00  0.00000000E+00  0.00000000E+00
  0.00000000E+00  0.00000000E+00  0.00000000E+00
  0.00000000E+00  0.00000000E+00  0.00000000E+00
  0.00000000E+00  0.00000000E+00  0.00000000E+00
  0.00000000E+00  0.00000000E+00  0.00000000E+00
  0.00000000E+00  0.00000000E+00  0.00000000E+00
  0.00000000E+00  0.00000000E+00  0.00000000E+00
  0.00000000E+00  0.00000000E+00  0.00000000E+00
  0.00000000E+00  0.00000000E+00  0.00000000E+00
  0.00000000E+00  0.00000000E+00  0.00000000E+00
  0.00000000E+00  0.00000000E+00  0.00000000E+00
  0.00000000E+00  0.00000000E+00  0.00000000E+00
  0.00000000E+00  0.00000000E+00  0.00000000E+00
  0.00000000E+00  0.00000000E+00  0.00000000E+00
  0.00000000E+00  0.00000000E+00  0.00000000E+00
  0.00000000E+00  0.00000000E+00  0.00000000E+00
  0.00000000E+00  0.00000000E+00  0.00000000E+00
  0.00000000E+00  0.00000000E+00  0.00000000E+00
  0.00000000E+00  0.00000000E+00  0.00000000E+00
  0.00000000E+00  0.00000000E+00  0.00000000E+00
  0.00000000E+00  0.00000000E+00  0.00000000E+00
  0.00000000E+00  0.00000000E+00  0.00000000E+00
  0.00000000E+00  0.00000000E+00  0.00000000E+00
  0.00000000E+00  0.00000000E+00  0.00000000E+00
  0.00000000E+00  0.00000000E+00  0.00000000E+00
  0.00000000E+00  0.00000000E+00  0.00000000E+00
  0.00000000E+00  0.00000000E+00  0.00000000E+00
  0.00000000E+00  0.00000000E+00  0.00000000E+00
  0.00000000E+00  0.00000000E+00  0.00000000E+00
  0.00000000E+00  0.00000000E+00  0.00000000E+00
  0.00000000E+00  0.00000000E+00  0.00000000E+00
  0.00000000E+00  0.00000000E+00  0.00000000E+00
  0.00000000E+00  0.00000000E+00  0.00000000E+00
  0.00000000E+00  0.00000000E+00  0.00000000E+00
  0.00000000E+00  0.00000000E+00  0.00000000E+00
  0.00000000E+00  0.00000000E+00  0.00000000E+00
  0.00000000E+00  0.00000000E+00  0.00000000E+00
  0.00000000E+00  0.00000000E+00  0.00000000E+00
  0.00000000E+00  0.00000000E+00  0.00000000E+00
  0.00000000E+00  0.00000000E+00  0.00000000E+00
  0.00000000E+00  0.00000000E+00  0.00000000E+00
  0.00000000E+00  0.00000000E+00  0.00000000E+00
  0.00000000E+00  0.00000000E+00  0.00000000E+00
  0.00000000E+00  0.00000000E+00  0.00000000E+00
  0.00000000E+00  0.00000000E+00  0.00000000E+00
  0.00000000E+00  0.00000000E+00  0.00000000E+00
  0.00000000E+00  0.00000000E+00  0.00000000E+00
  0.00000000E+00  0.00000000E+00  0.00000000E+00
  0.00000000E+00  0.00000000E+00  0.00000000E+00
  0.00000000E+00  0.00000000E+00  0.00000000E+00
  0.00000000E+00  0.00000000E+00  0.00000000E+00
  0.00000000E+00  0.00000000E+00  0.00000000E+00
  0.00000000E+00  0.00000000E+00  0.00000000E+00
  0.00000000E+00  0.00000000E+00  0.00000000E+00
  0.00000000E+00  0.00000000E+00  0.00000000E+00
  0.00000000E+00  0.00000000E+00  0.00000000E+00
  0.00000000E+00  0.00000000E+00  0.00000000E+00
  0.00000000E+00  0.00000000E+00  0.00000000E+00
  0.00000000E+00  0.00000000E+00  0.00000000E+00
  0.00000000E+00  0.00000000E+00  0.00000000E+00
  0.00000000E+00  0.00000000E+00  0.00000000E+00
  0.00000000E+00  0.00000000E+00  0.00000000E+00
  0.00000000E+00  0.00000000E+00  0.00000000E+00
  0.00000000E+00  0.00000000E+00  0.00000000E+00
  0.00000000E+00  0.00000000E+00  0.00000000E+00
  0.00000000E+00  0.00000000E+00  0.00000000E+00
  0.00000000E+00  0.00000000E+00  0.00000000E+00
  0.00000000E+00  0.00000000E+00  0.00000000E+00
  0.00000000E+00  0.00000000E+00  0.00000000E+00
  0.00000000E+00  0.00000000E+00  0.00000000E+00
  0.00000000E+00  0.00000000E+00  0.00000000E+00
  0.00000000E+00  0.00000000E+00  0.00000000E+00
  0.00000000E+00  0.00000000E+00  0.00000000E+00
  0.00000000E+00  0.00000000E+00  0.00000000E+00
  0.00000000E+00  0.00000000E+00  0.00000000E+00
  0.00000000E+00  0.00000000E+00  0.00000000E+00
  0.00000000E+00  0.00000000E+00  0.00000000E+00
  0.00000000E+00  0.00000000E+00  0.00000000E+00
  0.00000000E+00  0.00000000E+00  0.00000000E+00
  0.00000000E+00  0.00000000E+00  0.00000000E+00
  0.00000000E+00  0.00000000E+00  0.00000000E+00
  0.00000000E+00  0.00000000E+00  0.00000000E+00
  0.00000000E+00  0.00000000E+00  0.00000000E+00
  0.00000000E+00  0.00000000E+00  0.00000000E+00
  0.00000000E+00  0.00000000E+00  0.00000000E+00
  0.00000000E+00  0.00000000E+00  0.00000000E+00
  0.00000000E+00  0.00000000E+00  0.00000000E+00
  0.00000000E+00  0.00000000E+00  0.00000000E+00
  0.00000000E+00  0.00000000E+00  0.00000000E+00
