MA-Pb-I  Phonons/2015_MAPbI3/MAPbI3-Cubi
   1.00000000000000     
    17.6356035500105044   -0.0379363127600782    0.0455283198910035
    -0.1097288301264634   17.1457799218999938   -0.1247904218094179
     0.1702789523077191   -0.2251910081627225   12.7191579541014121
   C    N    H    Pb   I    Cs
    12    12    72    16    49     4
Direct
  0.2004009676858005  0.0402816271185594  0.2402422109707417
  0.7318766350833833  0.5139034238671147  0.2314952999361509
  0.7056163261471098  0.5596860875359181  0.7408623473207429
  0.9801448057046622  0.7791710904075170  0.7046707273018411
  0.2142267987359911  0.0192335473399077  0.7417662893632889
  0.4881817300212064  0.2823715881539187  0.2067643970979299
  0.0166329836411418  0.3121141887104074  0.7455661116199888
  0.2029832094338673  0.5389547080039954  0.2412177977401451
  0.2234747230130990  0.5221900363789966  0.7409545534818386
  0.4826043994024708  0.7827270378776968  0.2034522168968565
  0.7010298886737661  0.0151219065689607  0.2484773133489362
  0.6916270127610915  0.0247394032470731  0.7421623888690896
  0.2754673581973577  0.0023724237800725  0.2398592546996187
  0.7835746012802107  0.4581160592519471  0.2796287020182430
  0.7739234948233120  0.5104576762696202  0.7409539610919116
  0.0174253336528793  0.7407863381221227  0.7927586840013794
  0.2683888729145074  0.9642415144656097  0.7864301046019713
  0.5250819896489939  0.2376667776577622  0.2894049952699790
  0.0080303749424227  0.2263194904409341  0.7450804178096418
  0.2747906615498323  0.4949450313118288  0.2351329938869597
  0.2762470230745344  0.4681070336084557  0.7902401507951725
  0.5201894859327307  0.7383096653399924  0.2858572363496297
  0.7750703557827111  0.9756665754091645  0.2543974751993314
  0.7725156438792280  0.0027002369790820  0.7413022676696138
  0.1696020181124029  0.0204361167573192  0.1697858092735083
  0.7334286180762530  0.5048663097594626  0.1455706946698708
  0.6742389853465621  0.5477621186117786  0.6681249654645818
  0.0038409598960081  0.7557758232539497  0.6298368052289904
  0.2150861714450129  0.0122757840558800  0.6555322498043433
  0.5093863563369179  0.2615622065082234  0.1292386243242690
 -0.0109002924310537  0.3345670670097014  0.6755548820981255
  0.1686412952848823  0.5229722149890628  0.1723940107120169
  0.2291825694020861  0.5162209085527144  0.6548694076715330
  0.5047510272196551  0.7631558089879700  0.1259078973464141
  0.6731348367655572 -0.0040876628961267  0.1753738404934604
  0.6659142756766959  0.0031709545055570  0.6685990683783876
  0.2089708756075258  0.1039588718963036  0.2394449268600796
  0.7506648330517774  0.5736774526378851  0.2519790836496257
  0.7233260382880117  0.6214049588733044  0.7446187140564373
  0.9904541831113682  0.8425285189390828  0.7111992733353368
  0.2310467329374630  0.0791742078891676  0.7647375410661894
  0.5018157152638650  0.3447440132807177  0.2186192647490713
  0.0773598790691738  0.3272976200733501  0.7442451504805029
  0.2164834382538687  0.6017570296116486  0.2413393251414925
  0.2378753098548921  0.5822755558161917  0.7663829121827693
  0.4947454557418747  0.8453093483838569  0.2161333984458227
  0.7107971751765477  0.0786498916651352  0.2488817437806536
  0.6879211242747113  0.0886874502631800  0.7485221615919865
  0.1688696145549170  0.0237800220548252  0.3117770291397307
  0.6739330090072692  0.5040711090173081  0.2621947943277388
  0.6699978288182369  0.5461033918634448  0.8098914112410345
  0.9187220159240342  0.7674802763834434  0.7092610722666507
  0.1570133420075777  0.0062501029382172  0.7729334386784943
  0.4263791083148283  0.2736085289028187  0.2126382426092630
  0.9891471249769088  0.3363236251702205  0.8173548640541607
  0.1725890337553201  0.5242857962649318  0.3144076770350588
  0.1650480374450856  0.5078756411890440  0.7659860693800064
  0.4209855889432164  0.7723740738273794  0.2086179114180191
  0.6661812656335282 -0.0010574255230423  0.3171893921637501
  0.6633175341249860 -0.0017769375010528  0.8104442239147039
  0.3071950222346119  0.0184010351653640  0.1734895767079216
  0.8400538102046442  0.4661011130731639  0.2539259813994019
  0.8085437599434752  0.5225410397885507  0.6755969458514889
  0.0762192744312848  0.7502269718396818  0.7906744614278967
  0.3244136765188749  0.9747105053302100  0.7609250184384329
  0.5843180582439984  0.2445707201868520  0.2865014279889277
  0.0326143763661899  0.2005366438020520  0.6772170933348244
  0.3054509181607416  0.5096318477182206  0.1670904609640265
  0.3331752090796062  0.4811713936721354  0.7707742428420926
  0.5790953031258604  0.7472155580957277  0.2837923310439023
  0.8100036641487963  0.9907235450144308  0.1908599884471899
  0.8013139647733177  0.0259037146304137  0.6764024365088487
  0.2704921825149584  0.9413878349525077  0.2395057533586983
  0.7677818198426284  0.3998318840375665  0.2637289297315261
  0.7578712572152589  0.4517059786400777  0.7371901776158677
  0.0089110759395694  0.6800955139690424  0.7891124688250337
  0.2544871843540276  0.9058935487805413  0.7677057636332115
  0.5135716003900649  0.1777115625042131  0.2810941462519682
 -0.0496478144933125  0.2105144831211761  0.7465973767977285
  0.2653639725121618  0.4345548618171343  0.2341682258619706
  0.2654160870761368  0.4097066330722396  0.7684915322197617
  0.5109086025155842  0.6780159380733756  0.2762477568084514
  0.7683604279603730  0.9148851869625469  0.2539712976748047
  0.7781080977848601  0.9419108997372453  0.7377614411606741
  0.3056613952418447  0.0203901992471292  0.3067220792905789
  0.7841871298948138  0.4659156698121668  0.3611539116514282
  0.8049080226335451  0.5220014499250805  0.8093840265846950
  0.9963995417290993  0.7613532186792555  0.8655972137495861
  0.2687791922190189  0.9694473529856179  0.8682621170556341
  0.5063235567455852  0.2557896978622511  0.3643228064616432
  0.0327813088207794  0.2023044224755569  0.8112522518948428
  0.3080076370291902  0.5101324060610860  0.3002250532907768
  0.2716065362419081  0.4719124711533052  0.8720032328368357
  0.5002040711706698  0.7549535971196858  0.3608683373567624
  0.8030013662716723  0.9930507926810273  0.3233027527764409
  0.7993326789768272  0.0236474663234591  0.8093331179506781
  0.2387653615421308  0.7542168692887186  0.4878016455912918
  0.7411712397375257  0.2503105543771627  0.5350326865994705
  0.7452837286164964  0.2445886098944685  0.9976314283576720
  0.9931629509508102  0.5094832833325621  0.4964762583127958
  0.9873459506453247  0.5050950633170165  0.9968943186073091
  0.2414902270729400  0.7521289240485921  0.9947913615860902
  0.4845646808895993  0.0011820974059147  0.4899811988295135
  0.4898532208400227  0.0102890799748584  0.9921444660942565
  0.9878589350956862  0.0060590758148986  0.4932134830957528
  0.9856081692330044  0.0047792172539922  0.9930746912865545
  0.2403066887595521  0.2558225789834015  0.4873987686747975
  0.2358172264508059  0.2558148790600409  0.9922466666265852
  0.4837187768602626  0.5060171304800076  0.4893686349486968
  0.4957745301019506  0.5054093532972044  0.9853166681218710
  0.7422839407801531  0.7532943349480894  0.4926192832126841
  0.7416609363456016  0.7552293711371562  0.9895814804665707
  0.2513932619409134  0.7880254440055073  0.2391400659215923
  0.7292191821490921  0.2542879030565387  0.2453725306791111
  0.8072873057970573  0.2169850037219971  0.7557880285324147
  0.9788641876297738  0.5034345622440211  0.2451473870562917
  0.9885563313010051  0.5336813956207340  0.7456755153797759
  0.2202327379061569  0.7613188634048522  0.7400334338092214
  0.4844978637503566  0.0316972173543140  0.2404614005540299
  0.4659188850450452  0.0061009648683544  0.7386172918496648
  0.9821620281590211  0.0255305409049093  0.2419850646327890
  0.9783615982092650  0.0154996212717874  0.7426372731631500
  0.2391126203211125  0.2817135817950455  0.2379743634791477
  0.2406566514206852  0.2622668811954221  0.7375919864116178
  0.4936082791081413  0.5276613578910215  0.2393586340526072
  0.4677195488457664  0.5231540289759031  0.7400405292198279
  0.7237916423047319  0.7666322646202783  0.2397532617539132
  0.7493162065926235  0.7910069434226084  0.7393050608468119
  0.3866107532028372  0.8557382792424897  0.9686984797246445
  0.8938145788523297  0.3464289232788568  0.0198535186144646
  0.8851887953143818  0.3559663116151551  0.4892863822003928
  0.0874191916788593  0.6570725361356975  0.0219873409243365
  0.0835327701839711  0.6642039211903094  0.4637364563135452
  0.4024354863042935  0.8348939522466791  0.4927311546326196
  0.5840615620286577  0.1627045759290199  0.9622379607887944
  0.5875864239369124  0.1513578879386182  0.5203348108135224
  0.0779685684123955  0.1659073813152278 -0.0067828282486150
  0.0820101246630414  0.1646763872651158  0.4935293233453987
  0.3867885064110015  0.3561454978945205  0.9794075005170693
  0.4015489749985268  0.3388489043214608  0.4851175229982340
  0.5880254105268645  0.6614485211215709  0.9733764758479722
  0.5904115530716046  0.6532834555564541  0.5120382001221586
  0.9047862926597039  0.8390334512199316  0.0013171502610363
  0.8903666095581289  0.8526819479909306  0.4601060072463447
  0.1386242194256482  0.9078835356148349  0.4816288535133031
  0.6283299249628588  0.3973034795658185  0.4453562084216211
  0.6406295182730365  0.3598700061880590  0.6962680859944006
  0.6471118853840495  0.4015105451181076  0.9687099586231631
  0.8305911444955659  0.5930251526457606  0.4975603134747995
  0.8320888000515833  0.5975200638737126  0.9823608221643222
  0.1381811520962421  0.9055343887925449  0.9949686238311198
  0.3282374843398247  0.0936244089668073  0.4856455285103632
  0.3280504808915786  0.0970480329135714 -0.0025988742963147
  0.8245382594148501  0.0871047463838907  0.4873321316387587
  0.8189992641249821  0.0738720377820114  0.0085588928632098
  0.1401255067489761  0.4075421749561968  0.4870121980903027
  0.1417120409103394  0.4116956576564683  0.9916274811887361
  0.3273243773360643  0.5930023873454551  0.4729654898623615
  0.3368809590131132  0.5964284593803598  0.0066315810263285
  0.6301338372158518  0.8968791928495949  0.4940630343852535
  0.6297413238553556  0.9006452464967600  0.9873231941150441
  0.0319406339361311  0.8016907332689920  0.2411932955120485
  0.4586082612440247  0.2338345394476672  0.7404251182270279
  0.5229402350896902  0.7852423639848145  0.7417993704690795
  0.0134353840557772  0.2771522471101473  0.2536357883470235
 
  0.00000000E+00  0.00000000E+00  0.00000000E+00
  0.00000000E+00  0.00000000E+00  0.00000000E+00
  0.00000000E+00  0.00000000E+00  0.00000000E+00
  0.00000000E+00  0.00000000E+00  0.00000000E+00
  0.00000000E+00  0.00000000E+00  0.00000000E+00
  0.00000000E+00  0.00000000E+00  0.00000000E+00
  0.00000000E+00  0.00000000E+00  0.00000000E+00
  0.00000000E+00  0.00000000E+00  0.00000000E+00
  0.00000000E+00  0.00000000E+00  0.00000000E+00
  0.00000000E+00  0.00000000E+00  0.00000000E+00
  0.00000000E+00  0.00000000E+00  0.00000000E+00
  0.00000000E+00  0.00000000E+00  0.00000000E+00
  0.00000000E+00  0.00000000E+00  0.00000000E+00
  0.00000000E+00  0.00000000E+00  0.00000000E+00
  0.00000000E+00  0.00000000E+00  0.00000000E+00
  0.00000000E+00  0.00000000E+00  0.00000000E+00
  0.00000000E+00  0.00000000E+00  0.00000000E+00
  0.00000000E+00  0.00000000E+00  0.00000000E+00
  0.00000000E+00  0.00000000E+00  0.00000000E+00
  0.00000000E+00  0.00000000E+00  0.00000000E+00
  0.00000000E+00  0.00000000E+00  0.00000000E+00
  0.00000000E+00  0.00000000E+00  0.00000000E+00
  0.00000000E+00  0.00000000E+00  0.00000000E+00
  0.00000000E+00  0.00000000E+00  0.00000000E+00
  0.00000000E+00  0.00000000E+00  0.00000000E+00
  0.00000000E+00  0.00000000E+00  0.00000000E+00
  0.00000000E+00  0.00000000E+00  0.00000000E+00
  0.00000000E+00  0.00000000E+00  0.00000000E+00
  0.00000000E+00  0.00000000E+00  0.00000000E+00
  0.00000000E+00  0.00000000E+00  0.00000000E+00
  0.00000000E+00  0.00000000E+00  0.00000000E+00
  0.00000000E+00  0.00000000E+00  0.00000000E+00
  0.00000000E+00  0.00000000E+00  0.00000000E+00
  0.00000000E+00  0.00000000E+00  0.00000000E+00
  0.00000000E+00  0.00000000E+00  0.00000000E+00
  0.00000000E+00  0.00000000E+00  0.00000000E+00
  0.00000000E+00  0.00000000E+00  0.00000000E+00
  0.00000000E+00  0.00000000E+00  0.00000000E+00
  0.00000000E+00  0.00000000E+00  0.00000000E+00
  0.00000000E+00  0.00000000E+00  0.00000000E+00
  0.00000000E+00  0.00000000E+00  0.00000000E+00
  0.00000000E+00  0.00000000E+00  0.00000000E+00
  0.00000000E+00  0.00000000E+00  0.00000000E+00
  0.00000000E+00  0.00000000E+00  0.00000000E+00
  0.00000000E+00  0.00000000E+00  0.00000000E+00
  0.00000000E+00  0.00000000E+00  0.00000000E+00
  0.00000000E+00  0.00000000E+00  0.00000000E+00
  0.00000000E+00  0.00000000E+00  0.00000000E+00
  0.00000000E+00  0.00000000E+00  0.00000000E+00
  0.00000000E+00  0.00000000E+00  0.00000000E+00
  0.00000000E+00  0.00000000E+00  0.00000000E+00
  0.00000000E+00  0.00000000E+00  0.00000000E+00
  0.00000000E+00  0.00000000E+00  0.00000000E+00
  0.00000000E+00  0.00000000E+00  0.00000000E+00
  0.00000000E+00  0.00000000E+00  0.00000000E+00
  0.00000000E+00  0.00000000E+00  0.00000000E+00
  0.00000000E+00  0.00000000E+00  0.00000000E+00
  0.00000000E+00  0.00000000E+00  0.00000000E+00
  0.00000000E+00  0.00000000E+00  0.00000000E+00
  0.00000000E+00  0.00000000E+00  0.00000000E+00
  0.00000000E+00  0.00000000E+00  0.00000000E+00
  0.00000000E+00  0.00000000E+00  0.00000000E+00
  0.00000000E+00  0.00000000E+00  0.00000000E+00
  0.00000000E+00  0.00000000E+00  0.00000000E+00
  0.00000000E+00  0.00000000E+00  0.00000000E+00
  0.00000000E+00  0.00000000E+00  0.00000000E+00
  0.00000000E+00  0.00000000E+00  0.00000000E+00
  0.00000000E+00  0.00000000E+00  0.00000000E+00
  0.00000000E+00  0.00000000E+00  0.00000000E+00
  0.00000000E+00  0.00000000E+00  0.00000000E+00
  0.00000000E+00  0.00000000E+00  0.00000000E+00
  0.00000000E+00  0.00000000E+00  0.00000000E+00
  0.00000000E+00  0.00000000E+00  0.00000000E+00
  0.00000000E+00  0.00000000E+00  0.00000000E+00
  0.00000000E+00  0.00000000E+00  0.00000000E+00
  0.00000000E+00  0.00000000E+00  0.00000000E+00
  0.00000000E+00  0.00000000E+00  0.00000000E+00
  0.00000000E+00  0.00000000E+00  0.00000000E+00
  0.00000000E+00  0.00000000E+00  0.00000000E+00
  0.00000000E+00  0.00000000E+00  0.00000000E+00
  0.00000000E+00  0.00000000E+00  0.00000000E+00
  0.00000000E+00  0.00000000E+00  0.00000000E+00
  0.00000000E+00  0.00000000E+00  0.00000000E+00
  0.00000000E+00  0.00000000E+00  0.00000000E+00
  0.00000000E+00  0.00000000E+00  0.00000000E+00
  0.00000000E+00  0.00000000E+00  0.00000000E+00
  0.00000000E+00  0.00000000E+00  0.00000000E+00
  0.00000000E+00  0.00000000E+00  0.00000000E+00
  0.00000000E+00  0.00000000E+00  0.00000000E+00
  0.00000000E+00  0.00000000E+00  0.00000000E+00
  0.00000000E+00  0.00000000E+00  0.00000000E+00
  0.00000000E+00  0.00000000E+00  0.00000000E+00
  0.00000000E+00  0.00000000E+00  0.00000000E+00
  0.00000000E+00  0.00000000E+00  0.00000000E+00
  0.00000000E+00  0.00000000E+00  0.00000000E+00
  0.00000000E+00  0.00000000E+00  0.00000000E+00
  0.00000000E+00  0.00000000E+00  0.00000000E+00
  0.00000000E+00  0.00000000E+00  0.00000000E+00
  0.00000000E+00  0.00000000E+00  0.00000000E+00
  0.00000000E+00  0.00000000E+00  0.00000000E+00
  0.00000000E+00  0.00000000E+00  0.00000000E+00
  0.00000000E+00  0.00000000E+00  0.00000000E+00
  0.00000000E+00  0.00000000E+00  0.00000000E+00
  0.00000000E+00  0.00000000E+00  0.00000000E+00
  0.00000000E+00  0.00000000E+00  0.00000000E+00
  0.00000000E+00  0.00000000E+00  0.00000000E+00
  0.00000000E+00  0.00000000E+00  0.00000000E+00
  0.00000000E+00  0.00000000E+00  0.00000000E+00
  0.00000000E+00  0.00000000E+00  0.00000000E+00
  0.00000000E+00  0.00000000E+00  0.00000000E+00
  0.00000000E+00  0.00000000E+00  0.00000000E+00
  0.00000000E+00  0.00000000E+00  0.00000000E+00
  0.00000000E+00  0.00000000E+00  0.00000000E+00
  0.00000000E+00  0.00000000E+00  0.00000000E+00
  0.00000000E+00  0.00000000E+00  0.00000000E+00
  0.00000000E+00  0.00000000E+00  0.00000000E+00
  0.00000000E+00  0.00000000E+00  0.00000000E+00
  0.00000000E+00  0.00000000E+00  0.00000000E+00
  0.00000000E+00  0.00000000E+00  0.00000000E+00
  0.00000000E+00  0.00000000E+00  0.00000000E+00
  0.00000000E+00  0.00000000E+00  0.00000000E+00
  0.00000000E+00  0.00000000E+00  0.00000000E+00
  0.00000000E+00  0.00000000E+00  0.00000000E+00
  0.00000000E+00  0.00000000E+00  0.00000000E+00
  0.00000000E+00  0.00000000E+00  0.00000000E+00
  0.00000000E+00  0.00000000E+00  0.00000000E+00
  0.00000000E+00  0.00000000E+00  0.00000000E+00
  0.00000000E+00  0.00000000E+00  0.00000000E+00
  0.00000000E+00  0.00000000E+00  0.00000000E+00
  0.00000000E+00  0.00000000E+00  0.00000000E+00
  0.00000000E+00  0.00000000E+00  0.00000000E+00
  0.00000000E+00  0.00000000E+00  0.00000000E+00
  0.00000000E+00  0.00000000E+00  0.00000000E+00
  0.00000000E+00  0.00000000E+00  0.00000000E+00
  0.00000000E+00  0.00000000E+00  0.00000000E+00
  0.00000000E+00  0.00000000E+00  0.00000000E+00
  0.00000000E+00  0.00000000E+00  0.00000000E+00
  0.00000000E+00  0.00000000E+00  0.00000000E+00
  0.00000000E+00  0.00000000E+00  0.00000000E+00
  0.00000000E+00  0.00000000E+00  0.00000000E+00
  0.00000000E+00  0.00000000E+00  0.00000000E+00
  0.00000000E+00  0.00000000E+00  0.00000000E+00
  0.00000000E+00  0.00000000E+00  0.00000000E+00
  0.00000000E+00  0.00000000E+00  0.00000000E+00
  0.00000000E+00  0.00000000E+00  0.00000000E+00
  0.00000000E+00  0.00000000E+00  0.00000000E+00
  0.00000000E+00  0.00000000E+00  0.00000000E+00
  0.00000000E+00  0.00000000E+00  0.00000000E+00
  0.00000000E+00  0.00000000E+00  0.00000000E+00
  0.00000000E+00  0.00000000E+00  0.00000000E+00
  0.00000000E+00  0.00000000E+00  0.00000000E+00
  0.00000000E+00  0.00000000E+00  0.00000000E+00
  0.00000000E+00  0.00000000E+00  0.00000000E+00
  0.00000000E+00  0.00000000E+00  0.00000000E+00
  0.00000000E+00  0.00000000E+00  0.00000000E+00
  0.00000000E+00  0.00000000E+00  0.00000000E+00
  0.00000000E+00  0.00000000E+00  0.00000000E+00
  0.00000000E+00  0.00000000E+00  0.00000000E+00
  0.00000000E+00  0.00000000E+00  0.00000000E+00
  0.00000000E+00  0.00000000E+00  0.00000000E+00
  0.00000000E+00  0.00000000E+00  0.00000000E+00
  0.00000000E+00  0.00000000E+00  0.00000000E+00
  0.00000000E+00  0.00000000E+00  0.00000000E+00
  0.00000000E+00  0.00000000E+00  0.00000000E+00
  0.00000000E+00  0.00000000E+00  0.00000000E+00
