MA-Pb-I  Phonons/2015_MAPbI3/MAPbI3-Cubi
1.0
       17.7132244110         0.0000000000         0.0000000000
       -0.1426931695        17.7112591497         0.0000000000
        0.1968164558        -0.1964737486        12.7543833321
    C    N    H   Pb    I
   16   16   96   16   48
Direct
     0.223324269         0.026549630         0.229401544
     0.723324299         0.526549637         0.229401544
     0.723324299         0.526549637         0.729401529
     0.973324299         0.776549637         0.229401544
     0.973324299         0.776549637         0.729401529
     0.223324269         0.026549630         0.729401529
     0.473324269         0.276549637         0.229401544
     0.473324269         0.276549637         0.729401529
     0.973324299         0.276549637         0.229401544
     0.973324299         0.276549637         0.729401529
     0.223324269         0.526549637         0.229401544
     0.223324269         0.526549637         0.729401529
     0.473324269         0.776549637         0.229401544
     0.473324269         0.776549637         0.729401529
     0.723324299         0.026549630         0.229401544
     0.723324299         0.026549630         0.729401529
     0.277384400         0.972623765         0.273373574
     0.777384400         0.472623765         0.273373574
     0.777384400         0.472623765         0.773373604
     0.027384400         0.722623765         0.273373574
     0.027384400         0.722623765         0.773373604
     0.277384400         0.972623765         0.773373604
     0.527384400         0.222623765         0.273373574
     0.527384400         0.222623765         0.773373604
     0.027384400         0.222623765         0.273373574
     0.027384400         0.222623765         0.773373604
     0.277384400         0.472623765         0.273373574
     0.277384400         0.472623765         0.773373604
     0.527384400         0.722623765         0.273373574
     0.527384400         0.722623765         0.773373604
     0.777384400         0.972623765         0.273373574
     0.777384400         0.972623765         0.773373604
     0.226924032         0.022870973         0.143388197
     0.726924062         0.522870958         0.143388197
     0.726924062         0.522870958         0.643388212
     0.976924062         0.772870958         0.143388197
     0.976924062         0.772870958         0.643388212
     0.226924032         0.022870973         0.643388212
     0.476924032         0.272870958         0.143388197
     0.476924032         0.272870958         0.643388212
     0.976924062         0.272870958         0.143388197
     0.976924062         0.272870958         0.643388212
     0.226924032         0.522870958         0.143388197
     0.226924032         0.522870958         0.643388212
     0.476924032         0.772870958         0.143388197
     0.476924032         0.772870958         0.643388212
     0.726924062         0.022870973         0.143388197
     0.726924062         0.022870973         0.643388212
     0.238260806         0.083937429         0.256341875
     0.738260806         0.583937407         0.256341875
     0.738260806         0.583937407         0.756341875
     0.988260806         0.833937407         0.256341875
     0.988260806         0.833937407         0.756341875
     0.238260806         0.083937429         0.756341875
     0.488260806         0.333937436         0.256341875
     0.488260806         0.333937436         0.756341875
     0.988260806         0.333937436         0.256341875
     0.988260806         0.333937436         0.756341875
     0.238260806         0.583937407         0.256341875
     0.238260806         0.583937407         0.756341875
     0.488260806         0.833937407         0.256341875
     0.488260806         0.833937407         0.756341875
     0.738260806         0.083937429         0.256341875
     0.738260806         0.083937429         0.756341875
     0.165992647         0.011532918         0.256464124
     0.665992618         0.511532903         0.256464124
     0.665992618         0.511532903         0.756464124
     0.915992618         0.761532903         0.256464124
     0.915992618         0.761532903         0.756464124
     0.165992647         0.011532918         0.756464124
     0.415992647         0.261532903         0.256464124
     0.415992647         0.261532903         0.756464124
     0.915992618         0.261532903         0.256464124
     0.915992618         0.261532903         0.756464124
     0.165992647         0.511532903         0.256464124
     0.165992647         0.511532903         0.756464124
     0.415992647         0.761532903         0.256464124
     0.415992647         0.761532903         0.756464124
     0.665992618         0.011532918         0.256464124
     0.665992618         0.011532918         0.756464124
     0.332979500         0.984833598         0.249917641
     0.832979500         0.484833598         0.249917641
     0.832979500         0.484833598         0.749917626
     0.082979500         0.734833598         0.249917641
     0.082979500         0.734833598         0.749917626
     0.332979500         0.984833598         0.749917626
     0.582979500         0.234833598         0.249917641
     0.582979500         0.234833598         0.749917626
     0.082979500         0.234833598         0.249917641
     0.082979500         0.234833598         0.749917626
     0.332979500         0.484833598         0.249917641
     0.332979500         0.484833598         0.749917626
     0.582979500         0.734833598         0.249917641
     0.582979500         0.734833598         0.749917626
     0.832979500         0.984833598         0.249917641
     0.832979500         0.984833598         0.749917626
     0.265238017         0.916985691         0.250017345
     0.765238047         0.416985691         0.250017345
     0.765238047         0.416985691         0.750017345
     0.015238017         0.666985691         0.250017345
     0.015238017         0.666985691         0.750017345
     0.265238017         0.916985691         0.750017345
     0.515238047         0.166985691         0.250017345
     0.515238047         0.166985691         0.750017345
     0.015238017         0.166985691         0.250017345
     0.015238017         0.166985691         0.750017345
     0.265238017         0.416985691         0.250017345
     0.265238017         0.416985691         0.750017345
     0.515238047         0.666985691         0.250017345
     0.515238047         0.666985691         0.750017345
     0.765238047         0.916985691         0.250017345
     0.765238047         0.916985691         0.750017345
     0.277112067         0.972963929         0.355053216
     0.777112067         0.472963929         0.355053216
     0.777112067         0.472963929         0.855053186
     0.027112067         0.722963929         0.355053216
     0.027112067         0.722963929         0.855053186
     0.277112067         0.972963929         0.855053186
     0.527112067         0.222963929         0.355053216
     0.527112067         0.222963929         0.855053186
     0.027112067         0.222963929         0.355053216
     0.027112067         0.222963929         0.855053186
     0.277112067         0.472963929         0.355053216
     0.277112067         0.472963929         0.855053186
     0.527112067         0.722963929         0.355053216
     0.527112067         0.722963929         0.855053186
     0.777112067         0.972963929         0.355053216
     0.777112067         0.972963929         0.855053186
     0.236242503         0.763764083         0.489199758
     0.736242533         0.263764083         0.489199758
     0.736242533         0.263764083         0.989199758
     0.986242533         0.513764083         0.489199758
     0.986242533         0.513764083         0.989199758
     0.236242503         0.763764083         0.989199758
     0.486242503         0.013764083         0.489199758
     0.486242503         0.013764083         0.989199758
     0.986242533         0.013764083         0.489199758
     0.986242533         0.013764083         0.989199758
     0.236242503         0.263764083         0.489199758
     0.236242503         0.263764083         0.989199758
     0.486242503         0.513764083         0.489199758
     0.486242503         0.513764083         0.989199758
     0.736242533         0.763764083         0.489199758
     0.736242533         0.763764083         0.989199758
     0.227362320         0.772665918         0.237434715
     0.727362335         0.272665918         0.237434715
     0.727362335         0.272665918         0.737434745
     0.977362335         0.522665918         0.237434715
     0.977362335         0.522665918         0.737434745
     0.227362320         0.772665918         0.737434745
     0.477362335         0.022665918         0.237434715
     0.477362335         0.022665918         0.737434745
     0.977362335         0.022665918         0.237434715
     0.977362335         0.022665918         0.737434745
     0.227362320         0.272665918         0.237434715
     0.227362320         0.272665918         0.737434745
     0.477362335         0.522665918         0.237434715
     0.477362335         0.522665918         0.737434745
     0.727362335         0.772665918         0.237434715
     0.727362335         0.772665918         0.737434745
     0.349809110         0.900231302         0.011373269
     0.849809110         0.400231302         0.011373269
     0.849809110         0.400231302         0.511373281
     0.099809110         0.650231302         0.011373269
     0.099809110         0.650231302         0.511373281
     0.349809110         0.900231302         0.511373281
     0.599809110         0.150231302         0.011373269
     0.599809110         0.150231302         0.511373281
     0.099809110         0.150231302         0.011373269
     0.099809110         0.150231302         0.511373281
     0.349809110         0.400231302         0.011373269
     0.349809110         0.400231302         0.511373281
     0.599809110         0.650231302         0.011373269
     0.599809110         0.650231302         0.511373281
     0.849809110         0.900231302         0.011373269
     0.849809110         0.900231302         0.511373281
     0.108110666         0.891891658         0.461601794
     0.608110666         0.391891658         0.461601794
     0.608110666         0.391891658         0.961601794
     0.858110666         0.641891658         0.461601794
     0.858110666         0.641891658         0.961601794
     0.108110666         0.891891658         0.961601794
     0.358110666         0.141891658         0.461601794
     0.358110666         0.141891658         0.961601794
     0.858110666         0.141891658         0.461601794
     0.858110666         0.141891658         0.961601794
     0.108110666         0.391891658         0.461601794
     0.108110666         0.391891658         0.961601794
     0.358110666         0.641891658         0.461601794
     0.358110666         0.641891658         0.961601794
     0.608110666         0.891891658         0.461601794
     0.608110666         0.891891658         0.961601794
