MA-Pb-I  Phonons/2015_MAPbI3/MAPbI3-Cubi
   1.00000000000000     
    17.3435642457853625    0.0123550252666175   -0.0644317024225970
    -0.0588851986231219   17.3719926078671243    0.0744120491299717
     0.0877578911030242   -0.0803089603844621   12.7344438359591852
   C    N    H    Pb   I    Cs
     8     8    48    16    49     8
Direct
  0.2149489242714717  0.0498656482605497  0.2504478263565150
  0.7606702890773155  0.5206396028636299  0.2146042809518351
  0.7191476862108092  0.5467871821076064  0.7390722949010279
  0.2054434073457637  0.0152396421928154  0.7489743949378683
  0.9737188493575434  0.2692500548090384  0.7057510760808788
  0.2182248819986465  0.5102244400996432  0.7444513801138803
  0.4904662044140124  0.7957850755326993  0.2011939509663230
  0.7053414117078620  0.0540189554341770  0.2500504447923259
  0.2534124526477258  0.9740453072628192  0.2496894851222375
  0.7515201540198757  0.4782547776651545  0.3143950218662618
  0.7667952581052724  0.4763937773090217  0.7447597859891374
  0.2855853696408651  0.9862041351680845  0.7512509925642502
  0.0117285066608930  0.2286902127607962  0.7934139479444045
  0.2811456970665715  0.4615080136420072  0.7849613126671571
  0.5260196487738347  0.7618717537019000  0.2956492804737409
  0.7509163794352298  0.9823957548466594  0.2426997267782660
  0.2326902897120877  0.0821132329243348  0.1801133790621075
  0.8223087292956667  0.5323576969400807  0.2011758767544307
  0.6579883718403126  0.5300186277406657  0.7457548741845491
  0.1774328165270870  0.9941857065459095  0.6769372809928376
 -0.0023901645891953  0.2479935826488055  0.6309424096166618
  0.2149974367224862  0.5037368960516139  0.6586772554102696
  0.5101169635228180  0.7634729201956084  0.1316381889552204
  0.7231996255847546  0.0928441070349622  0.1862734337692963
  0.2316031270634821  0.0810729019587535  0.3221731314660326
  0.7289967046187303  0.5753244505570891  0.2197702375156792
  0.7295872275717274  0.5749046215405892  0.6630435316390518
  0.2068262729704999  0.0785906746019074  0.7495645093301405
  0.9842788708020485  0.3314974065374797  0.7137247530378972
  0.2304372167792432  0.5705162957402264  0.7652801993336915
  0.5075716933513397  0.8566066202326804  0.1948848219018641
  0.7161437491168333  0.0809651273315931  0.3268863412086818
  0.1520984875239531  0.0408705130510200  0.2497248944466079
  0.7372056396170144  0.4854466132944413  0.1500927430111881
  0.7353125805525224  0.5853137556053757  0.8041134234127261
  0.1746311711718462  0.9936423182559458  0.8186633109594198
  0.9112913212036876  0.2578295052761090  0.7094117854919132
  0.1637895230505332  0.4915169188013191  0.7811561220456177
  0.4273271854956255  0.7912304618211206  0.2084266260772214
  0.6437849523814805  0.0394923841836951  0.2422151923979838
  0.3136312867876809  0.9796518679042789  0.2498845212960188
  0.7725283557578071  0.5101644071541969  0.3782244949112890
  0.7528603744506204  0.4400507293511394  0.6818221622494393
  0.3162433837636546  0.0067009279165277  0.6860666791214338
  0.0715098041107705  0.2376202525560152  0.7919994923500542
  0.3357956827750277  0.4767449580362856  0.7553361907311114
  0.5864213600399365  0.7637657269775603  0.2919299768069705
  0.8105031812631813  0.9927190834385625  0.2459371723172618
  0.2366298509256803  0.9427298507570793  0.1830104544047245
  0.7801724523856995  0.4254218795537874  0.3122600235787492
  0.7532772916465459  0.4466100115132395  0.8140258328910299
  0.2859127569744117  0.9258506643531388  0.7505428282762816
  0.0025016981962778  0.1689854403741364  0.7894667770264483
  0.2709045379382826  0.4032603207711117  0.7684738235377345
  0.5095423222739073  0.7038226382603189  0.3023259145985010
  0.7385005996317996  0.9539157831811506  0.1720709292523448
  0.2360134438139164  0.9422213364517450  0.3157572940768822
  0.6933936127675850  0.4642681375729601  0.3275793116297934
  0.8259999704602708  0.4882070130036795  0.7432404619393810
  0.3138601579377354  0.0052687243730383  0.8190571799410802
 -0.0089671725331332  0.2484274253556567  0.8659380385527796
  0.2853843094794051  0.4670080027938313  0.8662944711090099
  0.5077931128093822  0.7893900918559602  0.3644940843571703
  0.7361222174191423  0.9454402926683217  0.3043799108870323
  0.2530980721835550  0.7538256306603056  0.4987889620192739
  0.7411341928147255  0.2564513411573820  0.4972826517220563
  0.7464374694946120  0.2588605477072149  0.0003512483436414
  0.9964637476057175  0.5111923475553888  0.4943835916014417
  0.9945729542674817  0.5097072702775483  0.9932021330031616
  0.2485936041454518  0.7594369568409622  0.9914901535046616
  0.4950119874668821  0.0133413154718349  0.4983508097792948
  0.4969593634814526  0.0147646120645680  0.9928769849737651
  0.9912831213431669  0.0086080588748129  0.4973254018854146
  0.9884126197751069  0.0071174979720915  0.0035562762899111
  0.2406120635669883  0.2563252956205660  0.4985142835232919
  0.2406849105254473  0.2557137895378478  0.0020792335214853
  0.4924707309723250  0.5028960157731658  0.4395222780253065
  0.4970073397421264  0.5050078988494092  0.0188385746155835
  0.7422291162142021  0.7604265647667188  0.4985347164928688
  0.7411209260157635  0.7588369705163108  0.9951851358623726
  0.2508026498827317  0.7571937505026644  0.2443358245606931
  0.7733103927612083  0.2770603308190726  0.2452724625423718
  0.7423154342438537  0.2339433566429207  0.7460421241562920
  0.9923318169749056  0.5165081690678025  0.2418630689850199
  0.9795259498487988  0.5117036790079778  0.7415365933915860
  0.2256282096222008  0.7855160698573247  0.7433965008246948
  0.4597106780777859  0.0155766296846841  0.2475803346195224
  0.5163174463508649  0.0358809124544543  0.7466593205068048
  0.9618595917875699  0.0000340125605866  0.2505593878542451
  0.9843334616696873  0.0232712928280108  0.7510954453888815
  0.2406549441995192  0.2760793896459497  0.2492970001450050
  0.2157715142957876  0.2647383377959658  0.7500590391043075
  0.4286484822355653  0.5892583037486580  0.2454477426645842
  0.4846743196745396  0.4962242020159885  0.7672236218832824
  0.7334393136904578  0.7637500890313871  0.2477383492945604
  0.7421858928897579  0.7801421566517064  0.7469755080489404
  0.3982190738588532  0.8625863797651838  0.9535283607460079
  0.9081019155834226  0.3470828379153456 -0.0208935476614288
  0.8876640519790301  0.3665641303155796  0.4920038378565177
  0.0918483574839040  0.6642055366643870 -0.0005482350350708
  0.0936356319996290  0.6650052470454058  0.4892692795058828
  0.4124615980860188  0.8478443908868816  0.5097735713772892
  0.5841679001577194  0.1738714439672459  0.0187170708837166
  0.5801079293770868  0.1722236251677064  0.4772853006402992
  0.0858527831024148  0.1611296822388502  0.0319896676911510
  0.0850279160526457  0.1626679858442502  0.4729441319844214
  0.3957159298048762  0.3498447994154708  0.9948313923770473
  0.3948358497184690  0.3524536475821286  0.5079229799104927
  0.5904592251593962  0.6589254057246329  0.9862181749961135
  0.5960964179674155  0.6488354331469588  0.5046950992665278
  0.9024136659110550  0.8475754671789484 -0.0028270743001610
  0.9030303406451302  0.8472553948681459  0.5035100753074265
  0.1464468120073978  0.9073395397800026  0.4682113662955241
  0.6545303551694376  0.4104751593268887 -0.0434745622530578
  0.8427223924774065  0.6096799257524677  0.4925964789275530
  0.8458060773395862  0.6118800875612288  0.9742446112396833
  0.1453215746948666  0.9100399694264175  0.0293049834512308
  0.3329788184592005  0.0963392852606971  0.5191849732660515
  0.3345712265768231  0.0996561665948388  0.9811340150648107
  0.8350610721447241  0.0981798647897209  0.4966970844117321
  0.8326903361285822  0.0965882369496078 -0.0009587159828016
  0.1444870643200068  0.4095899743266658  0.4773063786540336
  0.1508477351924599  0.4152825276090198  0.0075572830790811
  0.3428252032328039  0.6021341149774129  0.5392584246168214
  0.3388639076106181  0.6047175582685056  0.9669331415325222
  0.6520999957690242  0.9197770133763206  0.4777949098057263
  0.6536581031738696  0.9211503301595952  0.0086477162525146
  0.5660329010624087  0.4182755669859553  0.2458564905087694
  0.6437236849252906  0.4048487847909888  0.5458418147356978
  0.0212180526628566  0.7837742350956373  0.2480732328343851
  0.5236235770220947  0.2780428367993126  0.7504675105423094
  0.4666734590427243  0.7123257446122208  0.7452246034552593
  0.0044199625126173  0.2897968825357227  0.2512251153379745
  0.9732268174777766  0.7356990615928110  0.7505654201043059
  0.7478212602212904  0.0061290707807178  0.7456959653444718
  0.4541274592304859  0.2361320567204383  0.2488025400434029
  0.2181471228889834  0.5362231354351582  0.2457736925063524
 
  0.00000000E+00  0.00000000E+00  0.00000000E+00
  0.00000000E+00  0.00000000E+00  0.00000000E+00
  0.00000000E+00  0.00000000E+00  0.00000000E+00
  0.00000000E+00  0.00000000E+00  0.00000000E+00
  0.00000000E+00  0.00000000E+00  0.00000000E+00
  0.00000000E+00  0.00000000E+00  0.00000000E+00
  0.00000000E+00  0.00000000E+00  0.00000000E+00
  0.00000000E+00  0.00000000E+00  0.00000000E+00
  0.00000000E+00  0.00000000E+00  0.00000000E+00
  0.00000000E+00  0.00000000E+00  0.00000000E+00
  0.00000000E+00  0.00000000E+00  0.00000000E+00
  0.00000000E+00  0.00000000E+00  0.00000000E+00
  0.00000000E+00  0.00000000E+00  0.00000000E+00
  0.00000000E+00  0.00000000E+00  0.00000000E+00
  0.00000000E+00  0.00000000E+00  0.00000000E+00
  0.00000000E+00  0.00000000E+00  0.00000000E+00
  0.00000000E+00  0.00000000E+00  0.00000000E+00
  0.00000000E+00  0.00000000E+00  0.00000000E+00
  0.00000000E+00  0.00000000E+00  0.00000000E+00
  0.00000000E+00  0.00000000E+00  0.00000000E+00
  0.00000000E+00  0.00000000E+00  0.00000000E+00
  0.00000000E+00  0.00000000E+00  0.00000000E+00
  0.00000000E+00  0.00000000E+00  0.00000000E+00
  0.00000000E+00  0.00000000E+00  0.00000000E+00
  0.00000000E+00  0.00000000E+00  0.00000000E+00
  0.00000000E+00  0.00000000E+00  0.00000000E+00
  0.00000000E+00  0.00000000E+00  0.00000000E+00
  0.00000000E+00  0.00000000E+00  0.00000000E+00
  0.00000000E+00  0.00000000E+00  0.00000000E+00
  0.00000000E+00  0.00000000E+00  0.00000000E+00
  0.00000000E+00  0.00000000E+00  0.00000000E+00
  0.00000000E+00  0.00000000E+00  0.00000000E+00
  0.00000000E+00  0.00000000E+00  0.00000000E+00
  0.00000000E+00  0.00000000E+00  0.00000000E+00
  0.00000000E+00  0.00000000E+00  0.00000000E+00
  0.00000000E+00  0.00000000E+00  0.00000000E+00
  0.00000000E+00  0.00000000E+00  0.00000000E+00
  0.00000000E+00  0.00000000E+00  0.00000000E+00
  0.00000000E+00  0.00000000E+00  0.00000000E+00
  0.00000000E+00  0.00000000E+00  0.00000000E+00
  0.00000000E+00  0.00000000E+00  0.00000000E+00
  0.00000000E+00  0.00000000E+00  0.00000000E+00
  0.00000000E+00  0.00000000E+00  0.00000000E+00
  0.00000000E+00  0.00000000E+00  0.00000000E+00
  0.00000000E+00  0.00000000E+00  0.00000000E+00
  0.00000000E+00  0.00000000E+00  0.00000000E+00
  0.00000000E+00  0.00000000E+00  0.00000000E+00
  0.00000000E+00  0.00000000E+00  0.00000000E+00
  0.00000000E+00  0.00000000E+00  0.00000000E+00
  0.00000000E+00  0.00000000E+00  0.00000000E+00
  0.00000000E+00  0.00000000E+00  0.00000000E+00
  0.00000000E+00  0.00000000E+00  0.00000000E+00
  0.00000000E+00  0.00000000E+00  0.00000000E+00
  0.00000000E+00  0.00000000E+00  0.00000000E+00
  0.00000000E+00  0.00000000E+00  0.00000000E+00
  0.00000000E+00  0.00000000E+00  0.00000000E+00
  0.00000000E+00  0.00000000E+00  0.00000000E+00
  0.00000000E+00  0.00000000E+00  0.00000000E+00
  0.00000000E+00  0.00000000E+00  0.00000000E+00
  0.00000000E+00  0.00000000E+00  0.00000000E+00
  0.00000000E+00  0.00000000E+00  0.00000000E+00
  0.00000000E+00  0.00000000E+00  0.00000000E+00
  0.00000000E+00  0.00000000E+00  0.00000000E+00
  0.00000000E+00  0.00000000E+00  0.00000000E+00
  0.00000000E+00  0.00000000E+00  0.00000000E+00
  0.00000000E+00  0.00000000E+00  0.00000000E+00
  0.00000000E+00  0.00000000E+00  0.00000000E+00
  0.00000000E+00  0.00000000E+00  0.00000000E+00
  0.00000000E+00  0.00000000E+00  0.00000000E+00
  0.00000000E+00  0.00000000E+00  0.00000000E+00
  0.00000000E+00  0.00000000E+00  0.00000000E+00
  0.00000000E+00  0.00000000E+00  0.00000000E+00
  0.00000000E+00  0.00000000E+00  0.00000000E+00
  0.00000000E+00  0.00000000E+00  0.00000000E+00
  0.00000000E+00  0.00000000E+00  0.00000000E+00
  0.00000000E+00  0.00000000E+00  0.00000000E+00
  0.00000000E+00  0.00000000E+00  0.00000000E+00
  0.00000000E+00  0.00000000E+00  0.00000000E+00
  0.00000000E+00  0.00000000E+00  0.00000000E+00
  0.00000000E+00  0.00000000E+00  0.00000000E+00
  0.00000000E+00  0.00000000E+00  0.00000000E+00
  0.00000000E+00  0.00000000E+00  0.00000000E+00
  0.00000000E+00  0.00000000E+00  0.00000000E+00
  0.00000000E+00  0.00000000E+00  0.00000000E+00
  0.00000000E+00  0.00000000E+00  0.00000000E+00
  0.00000000E+00  0.00000000E+00  0.00000000E+00
  0.00000000E+00  0.00000000E+00  0.00000000E+00
  0.00000000E+00  0.00000000E+00  0.00000000E+00
  0.00000000E+00  0.00000000E+00  0.00000000E+00
  0.00000000E+00  0.00000000E+00  0.00000000E+00
  0.00000000E+00  0.00000000E+00  0.00000000E+00
  0.00000000E+00  0.00000000E+00  0.00000000E+00
  0.00000000E+00  0.00000000E+00  0.00000000E+00
  0.00000000E+00  0.00000000E+00  0.00000000E+00
  0.00000000E+00  0.00000000E+00  0.00000000E+00
  0.00000000E+00  0.00000000E+00  0.00000000E+00
  0.00000000E+00  0.00000000E+00  0.00000000E+00
  0.00000000E+00  0.00000000E+00  0.00000000E+00
  0.00000000E+00  0.00000000E+00  0.00000000E+00
  0.00000000E+00  0.00000000E+00  0.00000000E+00
  0.00000000E+00  0.00000000E+00  0.00000000E+00
  0.00000000E+00  0.00000000E+00  0.00000000E+00
  0.00000000E+00  0.00000000E+00  0.00000000E+00
  0.00000000E+00  0.00000000E+00  0.00000000E+00
  0.00000000E+00  0.00000000E+00  0.00000000E+00
  0.00000000E+00  0.00000000E+00  0.00000000E+00
  0.00000000E+00  0.00000000E+00  0.00000000E+00
  0.00000000E+00  0.00000000E+00  0.00000000E+00
  0.00000000E+00  0.00000000E+00  0.00000000E+00
  0.00000000E+00  0.00000000E+00  0.00000000E+00
  0.00000000E+00  0.00000000E+00  0.00000000E+00
  0.00000000E+00  0.00000000E+00  0.00000000E+00
  0.00000000E+00  0.00000000E+00  0.00000000E+00
  0.00000000E+00  0.00000000E+00  0.00000000E+00
  0.00000000E+00  0.00000000E+00  0.00000000E+00
  0.00000000E+00  0.00000000E+00  0.00000000E+00
  0.00000000E+00  0.00000000E+00  0.00000000E+00
  0.00000000E+00  0.00000000E+00  0.00000000E+00
  0.00000000E+00  0.00000000E+00  0.00000000E+00
  0.00000000E+00  0.00000000E+00  0.00000000E+00
  0.00000000E+00  0.00000000E+00  0.00000000E+00
  0.00000000E+00  0.00000000E+00  0.00000000E+00
  0.00000000E+00  0.00000000E+00  0.00000000E+00
  0.00000000E+00  0.00000000E+00  0.00000000E+00
  0.00000000E+00  0.00000000E+00  0.00000000E+00
  0.00000000E+00  0.00000000E+00  0.00000000E+00
  0.00000000E+00  0.00000000E+00  0.00000000E+00
  0.00000000E+00  0.00000000E+00  0.00000000E+00
  0.00000000E+00  0.00000000E+00  0.00000000E+00
  0.00000000E+00  0.00000000E+00  0.00000000E+00
  0.00000000E+00  0.00000000E+00  0.00000000E+00
  0.00000000E+00  0.00000000E+00  0.00000000E+00
  0.00000000E+00  0.00000000E+00  0.00000000E+00
  0.00000000E+00  0.00000000E+00  0.00000000E+00
  0.00000000E+00  0.00000000E+00  0.00000000E+00
  0.00000000E+00  0.00000000E+00  0.00000000E+00
  0.00000000E+00  0.00000000E+00  0.00000000E+00
