MA-Pb-I  Phonons/2015_MAPbI3/MAPbI3-Cubi
   1.00000000000000     
    17.3435642457853625    0.0123550252666175   -0.0644317024225970
    -0.0588851986231219   17.3719926078671243    0.0744120491299717
     0.0877578911030242   -0.0803089603844621   12.7344438359591852
   C    N    H    Pb   I    Cs
     8     8    48    16    48     8
Direct
  0.2242350075124406  0.0283066160400125  0.2313387840543015
  0.7289883761410181  0.5323406211117785  0.2318103596806651
  0.7175658121567920  0.5284539055942119  0.7361759222987061
  0.2166408262882413  0.0289933017213144  0.7370568101908646
  0.9710793006681442  0.2735316197718305  0.7269656067437964
  0.2190037830430214  0.5360900608850869  0.7322010574706752
  0.4665400778268349  0.7702142469343300  0.2157964026215140
  0.7160350394644013  0.0250558257801501  0.2362989066564509
  0.2784351404436691  0.9730531380322915  0.2795104805008037
  0.7819336122635647  0.4761818652137677  0.2803643144344505
  0.7726274349938222  0.4713163589700144  0.7781940441952031
  0.2788448276685003  0.9786162439393138  0.7761511842828810
  0.0299326187236915  0.2184283414684458  0.7636842426764971
  0.2672354732143774  0.4767639322202513  0.7830208473369780
  0.5200624022096036  0.7190725623047527  0.2728364634543112
  0.7701905201648529  0.9696801589355815  0.2842115197678936
  0.2280609731935357  0.0235271370648817  0.1453786943083486
  0.7365102936381973  0.5306898639048754  0.1460967078770992
  0.7222660476481337  0.5296020348408348  0.6501398308997040
  0.2157663466614679  0.0264702137900557  0.6508344736947436
  0.9704405909882254  0.2731483789609257  0.6405599998381746
  0.2273957891312861  0.5331128214382161  0.6466530397492960
  0.4751049736921829  0.7616563311666624  0.1309793868548610
  0.7211442107526693  0.0217902914942911  0.1503444114296997
  0.2400345224071003  0.0868873133919053  0.2565619022848153
  0.7429457001172679  0.5900743158554533  0.2619937405370720
  0.7319465223003405  0.5852140192707083  0.7693160608682277
  0.2283257896937130  0.0881973500501658  0.7636120974785499
  0.9854238118738934  0.3315821488685629  0.7557078309011942
  0.2365585555099869  0.5930558552894070  0.7617310920275031
  0.4789104774674655  0.8303346994423961  0.2371232755165025
  0.7306264609819237  0.0833580741375997  0.2638505767614490
  0.1654086803386008  0.0143327261204362  0.2578925894188586
  0.6693521278922532  0.5167048036655046  0.2526271250397230
  0.6589127294192210  0.5115271073034648  0.7600519049722152
  0.1614733946179712  0.0084311892450586  0.7695302284327354
  0.9142677101329753  0.2561089772649368  0.7575212319124844
  0.1581435033704963  0.5250384224754967  0.7519115923118918
  0.4068435108964721  0.7558606197871995  0.2378704783019217
  0.6570062241565537  0.0100801059743176  0.2609113735717159
  0.3356869663513251  0.9853686838602300  0.2589970036637084
  0.8397769944585320  0.4892880550474388  0.2639116852467822
  0.8299819504351831  0.4848579095930532  0.7593635525693969
  0.3332930760131205  0.9961712681828772  0.7500817334690879
  0.0850051899868447  0.2327661049713114  0.7364569857033771
  0.3261358085027837  0.4851315677908374  0.7677988728582363
  0.5776758604772780  0.7316248591242456  0.2545702797406690
  0.8276878857207066  0.9809292952611273  0.2637937174385812
  0.2659761073546036  0.9161033294548204  0.2581444317749018
  0.7705857717407341  0.4198724269402447  0.2554997444108977
  0.7608265643532093  0.4156798992728241  0.7511084643722867
  0.2709881606600959  0.9208859869459403  0.7540782060351603
  0.0173706498121291  0.1622740111660974  0.7388707947627680
  0.2527836082076931  0.4210634660284001  0.7584100898813873
  0.5105585158111765  0.6609489550791352  0.2545593289422143
  0.7572292191878134  0.9128638562382818  0.2627472508900368
  0.2749446687843857  0.9758582349938933  0.3609983063283551
  0.7758812803299691  0.4759247786133329  0.3616971286264814
  0.7684348278808883  0.4691509469433441  0.8597333391542250
  0.2809337675526535  0.9794808218780204  0.8578505266527472
  0.0338356870144736  0.2158400703802741  0.8457450236978019
  0.2596460450839473  0.4779409535479644  0.8641760338024724
  0.5152232163151496  0.7236889320148592  0.3542931065819204
  0.7665695038292668  0.9721777432825078  0.3657600058488626
  0.2417552336120323  0.7621498205214721  0.4924116910283516
  0.7363044179236624  0.2652631895578423  0.4908932232620913
  0.7378042302460202  0.2657033202684218  0.9912689283090970
  0.9935994730589570  0.5149685881961616  0.4900945566267865
  0.9890555141160249  0.5175731346135706  0.9938333425724224
  0.2371071012397721  0.7625701787598587  0.9874368888948339
  0.4875902992766399  0.0177648164185271  0.4881590886739957
  0.4890857794168895  0.0198918902163143  0.9932544912085177
  0.9910963835580731  0.0120337554433334  0.4927094025364269
  0.9869156115711846  0.0081588983977454  0.9909564433707985
  0.2348360667716918  0.2620033483921276  0.4857838824589109
  0.2359071443073972  0.2638279888730963  0.9981154646035009
  0.4874936204874203  0.5114824263438322  0.4954452850914421
  0.4900793267552856  0.5172832606887638  0.9883498403888353
  0.7363388422007802  0.7619044739134893  0.4977605822514590
  0.7346100862080434  0.7651676129270797  0.9893405282693308
  0.2288650647612727  0.7720210211715752  0.2372771742158548
  0.7253639201050746  0.2749181207756806  0.2396720806024533
  0.7292853868216511  0.2671568791252312  0.7395841062459709
  0.9785851415040483  0.5402378569342687  0.2407434917422080
  0.9761384542329168  0.5095961370990949  0.7403064614122314
  0.2651943576340017  0.7743146499400311  0.7371605441803624
  0.4754424349294197  0.0329673566005013  0.2392168528448408
  0.4846978494857765  0.0244230548707378  0.7383982905076891
  0.9748254186336922  0.0008698562538925  0.2415711247457537
  0.9703766552991766  0.0213909652532962  0.7407547026438834
  0.2611826641173138  0.2660813588906024  0.2407091939966293
  0.2310343198698988  0.2740958657545178  0.7400026910711759
  0.4896575292003646  0.5145346739490861  0.2402171976393888
  0.4712831168156484  0.4945308187437831  0.7411349392861695
  0.7210866012020247  0.7703553697802832  0.2429024412447731
  0.7380020124843725  0.7887643712098011  0.7424247386259921
  0.3841695977085280  0.8724477025523925  0.9854086038135605
  0.8913963329544856  0.3633305908785260  0.0055099330840278
  0.8896378458808982  0.3643819304239742  0.4674300979052006
  0.0786920234622173  0.6753144484034337  0.9785598115924188
  0.0830121357744531  0.6731028546828099  0.5070290745103492
  0.3987417129083184  0.8586822358682156  0.4791283042449521
  0.5794077730970670  0.1770754788903446  0.9857892318164829
  0.5783667201030624  0.1757375028214696  0.4943959697753755
  0.0819470266880984  0.1664953374296516  0.0203451021370213
  0.0761241116204729  0.1725492629715788  0.4837922891837323
  0.3897876151948623  0.3628455658682057  0.9949254068118734
  0.3926793471721126  0.3566486666666933  0.4875847614605959
  0.5768292599429898  0.6753198760171202  0.9774170410633758
  0.5808534589795542  0.6681990569883069  0.5271655786145502
  0.8948040578355290  0.8531861237453029  0.9994132272299012
  0.8917498666952497  0.8575611567420296  0.4870754188797832
  0.1439930119262627  0.9173678790507651  0.4838193695208091
  0.6456894253454948  0.4213091436897614  0.4852866825209787
  0.6444552169468807  0.4215225801144200  0.9873726717873268
  0.8363508133307960  0.6126488298471386  0.4981505658790013
  0.8341848575108699  0.6144530179937036  0.9697026686496031
  0.1421294024194424  0.9178855925799922  0.9806805093677653
  0.3290865178648943  0.1056267672122644  0.4959581897804384
  0.3345400450271327  0.1153604823570547  0.9727719795144623
  0.8330815278856036  0.1090701886254521  0.4785428626699471
  0.8353186737572500  0.1125396268652068  0.9983093748624370
  0.1464524797106463  0.4206892040737813  0.4766705689314463
  0.1445071042143198  0.4235654162801339  0.9996968838522946
  0.3359999782282799  0.6094109711522151  0.4714717357420355
  0.3303799938708067  0.6061184874573797  0.9944863827591917
  0.6443378346684554  0.9227859796586060  0.5011176697447652
  0.6400736388804447  0.9214366698317065  0.9746092701460540
  0.0047101583548610  0.7686000249823977  0.2470888223791619
  0.4768662029191901  0.2610853562999438  0.7424915466415527
  0.5045046509577773  0.8003605589994081  0.7457684852986688
  0.9455245143053403  0.2256133956774846  0.2428040934522073
  0.9534959844199449  0.7357375939867836  0.7416291288264034
  0.7374128630714480  0.0286435227452628  0.7412203035183609
  0.4920895876064080  0.2680817736938081  0.2404206822624744
  0.2633374373841519  0.4908615636537945  0.2380977044101371
 
  0.00000000E+00  0.00000000E+00  0.00000000E+00
  0.00000000E+00  0.00000000E+00  0.00000000E+00
  0.00000000E+00  0.00000000E+00  0.00000000E+00
  0.00000000E+00  0.00000000E+00  0.00000000E+00
  0.00000000E+00  0.00000000E+00  0.00000000E+00
  0.00000000E+00  0.00000000E+00  0.00000000E+00
  0.00000000E+00  0.00000000E+00  0.00000000E+00
  0.00000000E+00  0.00000000E+00  0.00000000E+00
  0.00000000E+00  0.00000000E+00  0.00000000E+00
  0.00000000E+00  0.00000000E+00  0.00000000E+00
  0.00000000E+00  0.00000000E+00  0.00000000E+00
  0.00000000E+00  0.00000000E+00  0.00000000E+00
  0.00000000E+00  0.00000000E+00  0.00000000E+00
  0.00000000E+00  0.00000000E+00  0.00000000E+00
  0.00000000E+00  0.00000000E+00  0.00000000E+00
  0.00000000E+00  0.00000000E+00  0.00000000E+00
  0.00000000E+00  0.00000000E+00  0.00000000E+00
  0.00000000E+00  0.00000000E+00  0.00000000E+00
  0.00000000E+00  0.00000000E+00  0.00000000E+00
  0.00000000E+00  0.00000000E+00  0.00000000E+00
  0.00000000E+00  0.00000000E+00  0.00000000E+00
  0.00000000E+00  0.00000000E+00  0.00000000E+00
  0.00000000E+00  0.00000000E+00  0.00000000E+00
  0.00000000E+00  0.00000000E+00  0.00000000E+00
  0.00000000E+00  0.00000000E+00  0.00000000E+00
  0.00000000E+00  0.00000000E+00  0.00000000E+00
  0.00000000E+00  0.00000000E+00  0.00000000E+00
  0.00000000E+00  0.00000000E+00  0.00000000E+00
  0.00000000E+00  0.00000000E+00  0.00000000E+00
  0.00000000E+00  0.00000000E+00  0.00000000E+00
  0.00000000E+00  0.00000000E+00  0.00000000E+00
  0.00000000E+00  0.00000000E+00  0.00000000E+00
  0.00000000E+00  0.00000000E+00  0.00000000E+00
  0.00000000E+00  0.00000000E+00  0.00000000E+00
  0.00000000E+00  0.00000000E+00  0.00000000E+00
  0.00000000E+00  0.00000000E+00  0.00000000E+00
  0.00000000E+00  0.00000000E+00  0.00000000E+00
  0.00000000E+00  0.00000000E+00  0.00000000E+00
  0.00000000E+00  0.00000000E+00  0.00000000E+00
  0.00000000E+00  0.00000000E+00  0.00000000E+00
  0.00000000E+00  0.00000000E+00  0.00000000E+00
  0.00000000E+00  0.00000000E+00  0.00000000E+00
  0.00000000E+00  0.00000000E+00  0.00000000E+00
  0.00000000E+00  0.00000000E+00  0.00000000E+00
  0.00000000E+00  0.00000000E+00  0.00000000E+00
  0.00000000E+00  0.00000000E+00  0.00000000E+00
  0.00000000E+00  0.00000000E+00  0.00000000E+00
  0.00000000E+00  0.00000000E+00  0.00000000E+00
  0.00000000E+00  0.00000000E+00  0.00000000E+00
  0.00000000E+00  0.00000000E+00  0.00000000E+00
  0.00000000E+00  0.00000000E+00  0.00000000E+00
  0.00000000E+00  0.00000000E+00  0.00000000E+00
  0.00000000E+00  0.00000000E+00  0.00000000E+00
  0.00000000E+00  0.00000000E+00  0.00000000E+00
  0.00000000E+00  0.00000000E+00  0.00000000E+00
  0.00000000E+00  0.00000000E+00  0.00000000E+00
  0.00000000E+00  0.00000000E+00  0.00000000E+00
  0.00000000E+00  0.00000000E+00  0.00000000E+00
  0.00000000E+00  0.00000000E+00  0.00000000E+00
  0.00000000E+00  0.00000000E+00  0.00000000E+00
  0.00000000E+00  0.00000000E+00  0.00000000E+00
  0.00000000E+00  0.00000000E+00  0.00000000E+00
  0.00000000E+00  0.00000000E+00  0.00000000E+00
  0.00000000E+00  0.00000000E+00  0.00000000E+00
  0.00000000E+00  0.00000000E+00  0.00000000E+00
  0.00000000E+00  0.00000000E+00  0.00000000E+00
  0.00000000E+00  0.00000000E+00  0.00000000E+00
  0.00000000E+00  0.00000000E+00  0.00000000E+00
  0.00000000E+00  0.00000000E+00  0.00000000E+00
  0.00000000E+00  0.00000000E+00  0.00000000E+00
  0.00000000E+00  0.00000000E+00  0.00000000E+00
  0.00000000E+00  0.00000000E+00  0.00000000E+00
  0.00000000E+00  0.00000000E+00  0.00000000E+00
  0.00000000E+00  0.00000000E+00  0.00000000E+00
  0.00000000E+00  0.00000000E+00  0.00000000E+00
  0.00000000E+00  0.00000000E+00  0.00000000E+00
  0.00000000E+00  0.00000000E+00  0.00000000E+00
  0.00000000E+00  0.00000000E+00  0.00000000E+00
  0.00000000E+00  0.00000000E+00  0.00000000E+00
  0.00000000E+00  0.00000000E+00  0.00000000E+00
  0.00000000E+00  0.00000000E+00  0.00000000E+00
  0.00000000E+00  0.00000000E+00  0.00000000E+00
  0.00000000E+00  0.00000000E+00  0.00000000E+00
  0.00000000E+00  0.00000000E+00  0.00000000E+00
  0.00000000E+00  0.00000000E+00  0.00000000E+00
  0.00000000E+00  0.00000000E+00  0.00000000E+00
  0.00000000E+00  0.00000000E+00  0.00000000E+00
  0.00000000E+00  0.00000000E+00  0.00000000E+00
  0.00000000E+00  0.00000000E+00  0.00000000E+00
  0.00000000E+00  0.00000000E+00  0.00000000E+00
  0.00000000E+00  0.00000000E+00  0.00000000E+00
  0.00000000E+00  0.00000000E+00  0.00000000E+00
  0.00000000E+00  0.00000000E+00  0.00000000E+00
  0.00000000E+00  0.00000000E+00  0.00000000E+00
  0.00000000E+00  0.00000000E+00  0.00000000E+00
  0.00000000E+00  0.00000000E+00  0.00000000E+00
  0.00000000E+00  0.00000000E+00  0.00000000E+00
  0.00000000E+00  0.00000000E+00  0.00000000E+00
  0.00000000E+00  0.00000000E+00  0.00000000E+00
  0.00000000E+00  0.00000000E+00  0.00000000E+00
  0.00000000E+00  0.00000000E+00  0.00000000E+00
  0.00000000E+00  0.00000000E+00  0.00000000E+00
  0.00000000E+00  0.00000000E+00  0.00000000E+00
  0.00000000E+00  0.00000000E+00  0.00000000E+00
  0.00000000E+00  0.00000000E+00  0.00000000E+00
  0.00000000E+00  0.00000000E+00  0.00000000E+00
  0.00000000E+00  0.00000000E+00  0.00000000E+00
  0.00000000E+00  0.00000000E+00  0.00000000E+00
  0.00000000E+00  0.00000000E+00  0.00000000E+00
  0.00000000E+00  0.00000000E+00  0.00000000E+00
  0.00000000E+00  0.00000000E+00  0.00000000E+00
  0.00000000E+00  0.00000000E+00  0.00000000E+00
  0.00000000E+00  0.00000000E+00  0.00000000E+00
  0.00000000E+00  0.00000000E+00  0.00000000E+00
  0.00000000E+00  0.00000000E+00  0.00000000E+00
  0.00000000E+00  0.00000000E+00  0.00000000E+00
  0.00000000E+00  0.00000000E+00  0.00000000E+00
  0.00000000E+00  0.00000000E+00  0.00000000E+00
  0.00000000E+00  0.00000000E+00  0.00000000E+00
  0.00000000E+00  0.00000000E+00  0.00000000E+00
  0.00000000E+00  0.00000000E+00  0.00000000E+00
  0.00000000E+00  0.00000000E+00  0.00000000E+00
  0.00000000E+00  0.00000000E+00  0.00000000E+00
  0.00000000E+00  0.00000000E+00  0.00000000E+00
  0.00000000E+00  0.00000000E+00  0.00000000E+00
  0.00000000E+00  0.00000000E+00  0.00000000E+00
  0.00000000E+00  0.00000000E+00  0.00000000E+00
  0.00000000E+00  0.00000000E+00  0.00000000E+00
  0.00000000E+00  0.00000000E+00  0.00000000E+00
  0.00000000E+00  0.00000000E+00  0.00000000E+00
  0.00000000E+00  0.00000000E+00  0.00000000E+00
  0.00000000E+00  0.00000000E+00  0.00000000E+00
  0.00000000E+00  0.00000000E+00  0.00000000E+00
  0.00000000E+00  0.00000000E+00  0.00000000E+00
  0.00000000E+00  0.00000000E+00  0.00000000E+00
  0.00000000E+00  0.00000000E+00  0.00000000E+00
