MA-Pb-I  Phonons/2015_MAPbI3/MAPbI3-Cubi
   1.00000000000000     
    17.6356035500105044   -0.0379363127600782    0.0455283198910035
    -0.1097288301264634   17.1457799218999938   -0.1247904218094179
     0.1702789523077191   -0.2251910081627225   12.7191579541014121
   C    N    H    Pb   I    Cs
    12    12    72    16    49     4
Direct
  0.1974263234821541  0.0410474123292733  0.2416065667436379
  0.7330252799264273  0.5335214176634183  0.2477315422790645
  0.7039818268377179  0.5482391967994739  0.7411007464926123
  0.9778907231735293  0.7723419188222300  0.7021666281773985
  0.2141041585298827  0.0176628888580737  0.7407362475294758
  0.4947952341336741  0.2855508354109721  0.2121373530868755
  0.0232296920110405  0.3111696069350391  0.7372631453818352
  0.2024859697145275  0.5354708293438609  0.2412076903889096
  0.2301943554304324  0.5269371789795324  0.7450128425189447
  0.4839474430466567  0.7864059975484365  0.2073101470781407
  0.6963944455100116  0.0147004421470086  0.2448927002930245
  0.6932486291529408  0.0274170442086630  0.7397552576523472
  0.2717442253066846  0.0016756163145444  0.2408493263651436
  0.7681215634968718  0.4573140372959937  0.2664833779711797
  0.7764311000249622  0.5055530514484233  0.7392345181476347
  0.0138719904840929  0.7376798311863301  0.7941226846217064
  0.2662416951917480  0.9623949072553155  0.7890008452885728
  0.5436579240803928  0.2391109384879775  0.2796813581441982
  0.0251900442884725  0.2251509882994837  0.7393975961374989
  0.2765104176922890  0.4954612305390016  0.2392560035511760
  0.2794822236688158  0.4670316552247994  0.7887885202286027
  0.5177219904327591  0.7446287937296456  0.2952463086289558
  0.7725311942677587  0.9791010013434037  0.2435814085302020
  0.7728777288788967  0.0010120931429964  0.7350229977139116
  0.1661454301961876  0.0219321826369404  0.1712422941798754
  0.7470237922339122  0.5510294379140716  0.1670257917503394
  0.6697664091599708  0.5279501783573247  0.6740676560680922
  0.0034943061025373  0.7470674038087108  0.6296521291913273
  0.2187197450468498  0.0114667719387247  0.6545711699332757
  0.5048678302312086  0.2672035159703069  0.1296195332817266
  0.9936339216664140  0.3284337141159782  0.6660329963585980
  0.1706162094230173  0.5169006757251097  0.1711177206383490
  0.2332500608511267  0.5229134303037490  0.6586135691531363
  0.5083210928872955  0.7636837665994857  0.1325417201229730
  0.6650668153550302  0.9922208317312431  0.1762601823802377
  0.6648280386402095  0.0078967267983773  0.6672070410960900
  0.2070967289156530  0.1045641416997868  0.2409377130916560
  0.7555979130348142  0.5764873337050450  0.3050813505317509
  0.7161784016857636  0.6110721597121446  0.7351738159278466
  0.9870336586776274  0.8359592720204155  0.7052331059492167
  0.2299526041489034  0.0774373946745223  0.7658896819377963
  0.5093797692866056  0.3477358665312172  0.2230315766867747
  0.0815825428093516  0.3342948517440305  0.7364463040840467
  0.2126495953125677  0.5988769273933283  0.2407440111711215
  0.2500964376335442  0.5847756663859867  0.7726255991139938
  0.4967127376947464  0.8491338948194637  0.2165537489199477
  0.7032728101906420  0.0785020815087348  0.2410428048216208
  0.6930531565589217  0.0914742232713738  0.7468317032232152
  0.1657964705857779  0.0251003220354524  0.3132851512654004
  0.6711337890092446  0.5276275535503299  0.2578543326949545
  0.6736841762781197  0.5368220118441748  0.8154831914749050
  0.9166614238830658  0.7594588228317279  0.7048072766074962
  0.1556725969432970  0.0043457946301460  0.7668082046099571
  0.4350755393839645  0.2756815865389647  0.2346585705905816
  0.9921492925447083  0.3329650874485584  0.8076124723464907
  0.1712476323186370  0.5197997699625504  0.3133185246249105
  0.1714954267554525  0.5168903648499097  0.7725696866206822
  0.4221114851583078  0.7770808521656128  0.2089542221210310
  0.6665903879594421  0.9989469863233474  0.3180715446202539
  0.6651179462721654  0.0022140559424136  0.8090973720879331
  0.3034218885141260  0.0174099557775757  0.1741992877172915
  0.8275651596680240  0.4606901219620945  0.2620729672950547
  0.8076128565659019  0.5179421796925873  0.6707124817228529
  0.0724386344260143  0.7484192823518655  0.7938773031009966
  0.3231490368454450  0.9736250885191360  0.7682679501168157
  0.6016803124262419  0.2456301761796700  0.2599635458331823
  0.0523176085225213  0.2015401736762708  0.6721015221362798
  0.3080464537299326  0.5107964557459962  0.1723256496799077
  0.3366867189161916  0.4745649130607241  0.7656685099157551
  0.5766164698982271  0.7529324148282359  0.2965393658889660
  0.8026445185000457  0.9950413448396508  0.1755529671742581
  0.8012663561899352  0.0231672182566337  0.6691353536087521
  0.2658969138495113  0.9407809111872938  0.2404634131715178
  0.7498138349754421  0.4145546297068877  0.2123630728996458
  0.7652760292988973  0.4454966671217185  0.7418948347901066
  0.0066652538226560  0.6767502715086045  0.7931275441414501
  0.2532971668911878  0.9042198735094107  0.7679220822230204
  0.5303780668767045  0.1795435335476394  0.2728133675880484
  0.9694525177439764  0.2026490435579561  0.7404925045782637
  0.2693694423671805  0.4347071942983168  0.2388574594378129
  0.2628921897544949  0.4101633456309874  0.7667624195609050
  0.5079327143972906  0.6842098400989131  0.2881650122296305
  0.7687858814080090  0.9182220630419383  0.2453388154473812
  0.7755352338368228  0.9399701863357459  0.7313606063046483
  0.3022595360971848  0.0192965490918747  0.3077123471930205
  0.7519618150756150  0.4370085798531853  0.3404998852255661
  0.8090193272133462  0.5226327122381014  0.8042636450173360
  0.9908173542016969  0.7599414118110752  0.8649804387806903
  0.2626055073875831  0.9664850665515671  0.8708544548082819
  0.5378691514462417  0.2552001060717943  0.3589107627375985
  0.0514653252488321  0.2052949335011860  0.8068781496145003
  0.3076608523950609  0.5127704728270164  0.3056097114041775
  0.2783040587101130  0.4702317530881984  0.8708035342770521
  0.4950592724646741  0.7639485901762758  0.3677866879160136
  0.8034048292727582 -0.0008393871715500  0.3088837949973945
  0.8020129246785911  0.0208278241854415  0.8018241461649526
  0.2374997817035503  0.7519050548824168  0.4871390280323818
  0.7399158578936105  0.2546285998623027  0.5602266013711522
  0.7358754598095417  0.2572695769957314  0.9688883950643967
  0.9930118657676569  0.5071514549097338  0.4952578347377103
  0.9862190240236066  0.5052130728533120  0.9981445466572680
  0.2403084369160696  0.7515206745565359  0.9943323936039896
  0.4813969899912201  0.0067964229755292  0.4915782893184962
  0.4852180432075687  0.0123812830991482  0.9929911463470565
  0.9841808635076216  0.0066267201834825  0.4894831621755447
  0.9808073728338474  0.0041484265382086  0.9875957886502270
  0.2371134031167833  0.2588428435193969  0.4852246724047881
  0.2323770877920963  0.2573647216243775  0.9962933262358593
  0.4903299425999200  0.4996820134754312  0.4900198134363576
  0.4978938284849990  0.5042822705626024  0.9944402613787353
  0.7403210717212385  0.7545897595335775  0.4931710059144260
  0.7374441114035987  0.7559320124340870  0.9891833985555251
  0.2522820819597191  0.7861673960686464  0.2388450240858557
  0.7430858864572684  0.2466694643151293  0.2224761226550536
  0.8307427599609343  0.1982078111494872  0.7507180985470431
  0.9712056819880962  0.4846590169089682  0.2473960826601806
  0.9914138142160537  0.5313973532889561  0.7478042736211447
  0.2160100766513254  0.7608317946896991  0.7396129865450149
  0.4833196741430244  0.0351989121002481  0.2417952765824505
  0.4612217826492171  0.0141304926177865  0.7405607298070606
  0.9798228569426897  0.0207014372868974  0.2371105928941287
  0.9821849156678644  0.0089083304162466  0.7376479136692237
  0.2217911346819496  0.2880465070761177  0.2398510042293360
  0.2426265635599902  0.2596945343983170  0.7387961109964587
  0.4885887976082128  0.5380470970982779  0.2416513075621458
  0.4765555884567588  0.4892794550043889  0.7395806768633884
  0.7200524845046969  0.7695633147241517  0.2391323116547262
  0.7477729765399592  0.7897297411993603  0.7387365796316532
  0.3866202630222817  0.8547826195935987  0.9677275046083085
  0.8887262842503946  0.3521732883783417 -0.0055609519091277
  0.8788715963120779  0.3602489871181802  0.4968645623141928
  0.0868127459717511  0.6575554919888588  0.0266591985531249
  0.0830295529482964  0.6617079939101428  0.4551475350646986
  0.3979643350054269  0.8400751036990000  0.4965743415707083
  0.5775463658716994  0.1653735742911240  0.9661384549476729
  0.5859983126261106  0.1540089652580811  0.5230788559998917
  0.0754933917637159  0.1649766467865113  0.9952942539932157
  0.0788261227414477  0.1665837812155933  0.4803855937092699
  0.3836201979797416  0.3571870413965163  0.9921005941463128
  0.3985206585529424  0.3394664389099189  0.4751424756553981
  0.5839455328482809  0.6629585785629774  0.9642375710662516
  0.5894229966388379  0.6533739529739182  0.5194074984703785
  0.9026531459735039  0.8373617918105788  0.0005167897401915
  0.8900855531651701  0.8510534725745234  0.4594574127109503
  0.1366385101185394  0.9061339246408092  0.4790643242681292
  0.6334558770101323  0.3945544599509506  0.4531140735256327
  0.6634916167030880  0.3363530807921448  0.7542647295803483
  0.6443184595859329  0.4104410502719129  0.0432802046630034
  0.8365321594454004  0.6015026988292688  0.5071452422609759
  0.8312565769522139  0.6009225935393930  0.9777314330092864
  0.1372665484088540  0.9049425075736371  0.9971456965792457
  0.3241488374471072  0.0942632728244962  0.4831188527746031
  0.3230390175929194  0.0965128097382830  0.0016379662850728
  0.8237410915401140  0.0868756614629530  0.4764483162652547
  0.8183788705116065  0.0743900186223021  0.0025217424521826
  0.1458572272322745  0.4146943514912002  0.5037319940599351
  0.1399650275727810  0.4131955251742259  0.9818909466236801
  0.3317940013328962  0.5947500078308374  0.4780490072233773
  0.3356052195750804  0.5957249318429133  0.0035762758978475
  0.6265061156529546  0.8984046271921788  0.4956586979151794
  0.6271077131250969  0.9032913785730815  0.9827408333198420
  0.0319617054834823  0.8030283932904944  0.2402810563006091
  0.4629727425661005  0.2508424906742615  0.7392601225120555
  0.5240409431029120  0.7949442511308593  0.7398908930616402
 -0.0353541824655207  0.2514363340147891  0.2453708979514564
 
  0.00000000E+00  0.00000000E+00  0.00000000E+00
  0.00000000E+00  0.00000000E+00  0.00000000E+00
  0.00000000E+00  0.00000000E+00  0.00000000E+00
  0.00000000E+00  0.00000000E+00  0.00000000E+00
  0.00000000E+00  0.00000000E+00  0.00000000E+00
  0.00000000E+00  0.00000000E+00  0.00000000E+00
  0.00000000E+00  0.00000000E+00  0.00000000E+00
  0.00000000E+00  0.00000000E+00  0.00000000E+00
  0.00000000E+00  0.00000000E+00  0.00000000E+00
  0.00000000E+00  0.00000000E+00  0.00000000E+00
  0.00000000E+00  0.00000000E+00  0.00000000E+00
  0.00000000E+00  0.00000000E+00  0.00000000E+00
  0.00000000E+00  0.00000000E+00  0.00000000E+00
  0.00000000E+00  0.00000000E+00  0.00000000E+00
  0.00000000E+00  0.00000000E+00  0.00000000E+00
  0.00000000E+00  0.00000000E+00  0.00000000E+00
  0.00000000E+00  0.00000000E+00  0.00000000E+00
  0.00000000E+00  0.00000000E+00  0.00000000E+00
  0.00000000E+00  0.00000000E+00  0.00000000E+00
  0.00000000E+00  0.00000000E+00  0.00000000E+00
  0.00000000E+00  0.00000000E+00  0.00000000E+00
  0.00000000E+00  0.00000000E+00  0.00000000E+00
  0.00000000E+00  0.00000000E+00  0.00000000E+00
  0.00000000E+00  0.00000000E+00  0.00000000E+00
  0.00000000E+00  0.00000000E+00  0.00000000E+00
  0.00000000E+00  0.00000000E+00  0.00000000E+00
  0.00000000E+00  0.00000000E+00  0.00000000E+00
  0.00000000E+00  0.00000000E+00  0.00000000E+00
  0.00000000E+00  0.00000000E+00  0.00000000E+00
  0.00000000E+00  0.00000000E+00  0.00000000E+00
  0.00000000E+00  0.00000000E+00  0.00000000E+00
  0.00000000E+00  0.00000000E+00  0.00000000E+00
  0.00000000E+00  0.00000000E+00  0.00000000E+00
  0.00000000E+00  0.00000000E+00  0.00000000E+00
  0.00000000E+00  0.00000000E+00  0.00000000E+00
  0.00000000E+00  0.00000000E+00  0.00000000E+00
  0.00000000E+00  0.00000000E+00  0.00000000E+00
  0.00000000E+00  0.00000000E+00  0.00000000E+00
  0.00000000E+00  0.00000000E+00  0.00000000E+00
  0.00000000E+00  0.00000000E+00  0.00000000E+00
  0.00000000E+00  0.00000000E+00  0.00000000E+00
  0.00000000E+00  0.00000000E+00  0.00000000E+00
  0.00000000E+00  0.00000000E+00  0.00000000E+00
  0.00000000E+00  0.00000000E+00  0.00000000E+00
  0.00000000E+00  0.00000000E+00  0.00000000E+00
  0.00000000E+00  0.00000000E+00  0.00000000E+00
  0.00000000E+00  0.00000000E+00  0.00000000E+00
  0.00000000E+00  0.00000000E+00  0.00000000E+00
  0.00000000E+00  0.00000000E+00  0.00000000E+00
  0.00000000E+00  0.00000000E+00  0.00000000E+00
  0.00000000E+00  0.00000000E+00  0.00000000E+00
  0.00000000E+00  0.00000000E+00  0.00000000E+00
  0.00000000E+00  0.00000000E+00  0.00000000E+00
  0.00000000E+00  0.00000000E+00  0.00000000E+00
  0.00000000E+00  0.00000000E+00  0.00000000E+00
  0.00000000E+00  0.00000000E+00  0.00000000E+00
  0.00000000E+00  0.00000000E+00  0.00000000E+00
  0.00000000E+00  0.00000000E+00  0.00000000E+00
  0.00000000E+00  0.00000000E+00  0.00000000E+00
  0.00000000E+00  0.00000000E+00  0.00000000E+00
  0.00000000E+00  0.00000000E+00  0.00000000E+00
  0.00000000E+00  0.00000000E+00  0.00000000E+00
  0.00000000E+00  0.00000000E+00  0.00000000E+00
  0.00000000E+00  0.00000000E+00  0.00000000E+00
  0.00000000E+00  0.00000000E+00  0.00000000E+00
  0.00000000E+00  0.00000000E+00  0.00000000E+00
  0.00000000E+00  0.00000000E+00  0.00000000E+00
  0.00000000E+00  0.00000000E+00  0.00000000E+00
  0.00000000E+00  0.00000000E+00  0.00000000E+00
  0.00000000E+00  0.00000000E+00  0.00000000E+00
  0.00000000E+00  0.00000000E+00  0.00000000E+00
  0.00000000E+00  0.00000000E+00  0.00000000E+00
  0.00000000E+00  0.00000000E+00  0.00000000E+00
  0.00000000E+00  0.00000000E+00  0.00000000E+00
  0.00000000E+00  0.00000000E+00  0.00000000E+00
  0.00000000E+00  0.00000000E+00  0.00000000E+00
  0.00000000E+00  0.00000000E+00  0.00000000E+00
  0.00000000E+00  0.00000000E+00  0.00000000E+00
  0.00000000E+00  0.00000000E+00  0.00000000E+00
  0.00000000E+00  0.00000000E+00  0.00000000E+00
  0.00000000E+00  0.00000000E+00  0.00000000E+00
  0.00000000E+00  0.00000000E+00  0.00000000E+00
  0.00000000E+00  0.00000000E+00  0.00000000E+00
  0.00000000E+00  0.00000000E+00  0.00000000E+00
  0.00000000E+00  0.00000000E+00  0.00000000E+00
  0.00000000E+00  0.00000000E+00  0.00000000E+00
  0.00000000E+00  0.00000000E+00  0.00000000E+00
  0.00000000E+00  0.00000000E+00  0.00000000E+00
  0.00000000E+00  0.00000000E+00  0.00000000E+00
  0.00000000E+00  0.00000000E+00  0.00000000E+00
  0.00000000E+00  0.00000000E+00  0.00000000E+00
  0.00000000E+00  0.00000000E+00  0.00000000E+00
  0.00000000E+00  0.00000000E+00  0.00000000E+00
  0.00000000E+00  0.00000000E+00  0.00000000E+00
  0.00000000E+00  0.00000000E+00  0.00000000E+00
  0.00000000E+00  0.00000000E+00  0.00000000E+00
  0.00000000E+00  0.00000000E+00  0.00000000E+00
  0.00000000E+00  0.00000000E+00  0.00000000E+00
  0.00000000E+00  0.00000000E+00  0.00000000E+00
  0.00000000E+00  0.00000000E+00  0.00000000E+00
  0.00000000E+00  0.00000000E+00  0.00000000E+00
  0.00000000E+00  0.00000000E+00  0.00000000E+00
  0.00000000E+00  0.00000000E+00  0.00000000E+00
  0.00000000E+00  0.00000000E+00  0.00000000E+00
  0.00000000E+00  0.00000000E+00  0.00000000E+00
  0.00000000E+00  0.00000000E+00  0.00000000E+00
  0.00000000E+00  0.00000000E+00  0.00000000E+00
  0.00000000E+00  0.00000000E+00  0.00000000E+00
  0.00000000E+00  0.00000000E+00  0.00000000E+00
  0.00000000E+00  0.00000000E+00  0.00000000E+00
  0.00000000E+00  0.00000000E+00  0.00000000E+00
  0.00000000E+00  0.00000000E+00  0.00000000E+00
  0.00000000E+00  0.00000000E+00  0.00000000E+00
  0.00000000E+00  0.00000000E+00  0.00000000E+00
  0.00000000E+00  0.00000000E+00  0.00000000E+00
  0.00000000E+00  0.00000000E+00  0.00000000E+00
  0.00000000E+00  0.00000000E+00  0.00000000E+00
  0.00000000E+00  0.00000000E+00  0.00000000E+00
  0.00000000E+00  0.00000000E+00  0.00000000E+00
  0.00000000E+00  0.00000000E+00  0.00000000E+00
  0.00000000E+00  0.00000000E+00  0.00000000E+00
  0.00000000E+00  0.00000000E+00  0.00000000E+00
  0.00000000E+00  0.00000000E+00  0.00000000E+00
  0.00000000E+00  0.00000000E+00  0.00000000E+00
  0.00000000E+00  0.00000000E+00  0.00000000E+00
  0.00000000E+00  0.00000000E+00  0.00000000E+00
  0.00000000E+00  0.00000000E+00  0.00000000E+00
  0.00000000E+00  0.00000000E+00  0.00000000E+00
  0.00000000E+00  0.00000000E+00  0.00000000E+00
  0.00000000E+00  0.00000000E+00  0.00000000E+00
  0.00000000E+00  0.00000000E+00  0.00000000E+00
  0.00000000E+00  0.00000000E+00  0.00000000E+00
  0.00000000E+00  0.00000000E+00  0.00000000E+00
  0.00000000E+00  0.00000000E+00  0.00000000E+00
  0.00000000E+00  0.00000000E+00  0.00000000E+00
  0.00000000E+00  0.00000000E+00  0.00000000E+00
  0.00000000E+00  0.00000000E+00  0.00000000E+00
  0.00000000E+00  0.00000000E+00  0.00000000E+00
  0.00000000E+00  0.00000000E+00  0.00000000E+00
  0.00000000E+00  0.00000000E+00  0.00000000E+00
  0.00000000E+00  0.00000000E+00  0.00000000E+00
  0.00000000E+00  0.00000000E+00  0.00000000E+00
  0.00000000E+00  0.00000000E+00  0.00000000E+00
  0.00000000E+00  0.00000000E+00  0.00000000E+00
  0.00000000E+00  0.00000000E+00  0.00000000E+00
  0.00000000E+00  0.00000000E+00  0.00000000E+00
  0.00000000E+00  0.00000000E+00  0.00000000E+00
  0.00000000E+00  0.00000000E+00  0.00000000E+00
  0.00000000E+00  0.00000000E+00  0.00000000E+00
  0.00000000E+00  0.00000000E+00  0.00000000E+00
  0.00000000E+00  0.00000000E+00  0.00000000E+00
  0.00000000E+00  0.00000000E+00  0.00000000E+00
  0.00000000E+00  0.00000000E+00  0.00000000E+00
  0.00000000E+00  0.00000000E+00  0.00000000E+00
  0.00000000E+00  0.00000000E+00  0.00000000E+00
  0.00000000E+00  0.00000000E+00  0.00000000E+00
  0.00000000E+00  0.00000000E+00  0.00000000E+00
  0.00000000E+00  0.00000000E+00  0.00000000E+00
  0.00000000E+00  0.00000000E+00  0.00000000E+00
  0.00000000E+00  0.00000000E+00  0.00000000E+00
  0.00000000E+00  0.00000000E+00  0.00000000E+00
  0.00000000E+00  0.00000000E+00  0.00000000E+00
  0.00000000E+00  0.00000000E+00  0.00000000E+00
  0.00000000E+00  0.00000000E+00  0.00000000E+00
  0.00000000E+00  0.00000000E+00  0.00000000E+00
